 Generated by VASPKIT code
   1.000
   12.7800006865999993    0.0000000000000000    0.0000000000000000
    0.0000000000000000   12.7800006865999993    0.0000000000000000
    0.0000000000000000    0.0000000000000000   44.9309647111174968
   Co   O    C    O    H 
   54   54   14    4   10
Selective Dynamics
Cartesian
    4.2576065688180682    4.2576080896381496    0.0000000000000000    F  F  F            Co1
    4.2576065688180682    8.5176080586448020    0.0000000000000000    F  F  F            Co2
    4.2576065688180682   12.7776087944514956    0.0000000000000000    F  F  F            Co3
    8.5176065378247205    4.2576080896381496    0.0000000000000000    F  F  F            Co4
    8.5176065378247205    8.5176080586448020    0.0000000000000000    F  F  F            Co5
    8.5176065378247205   12.7776087944514956    0.0000000000000000    F  F  F            Co6
   12.7776072736314141    4.2576080896381496    0.0000000000000000    F  F  F            Co7
   12.7776072736314141    8.5176080586448020    0.0000000000000000    F  F  F            Co8
   12.7776072736314141   12.7776087944514956    0.0000000000000000    F  F  F            Co9
    4.2576065688180682    4.2576080896381496    4.2166836992310621    T  T  T           Co10
    4.2576065688180682    8.5176080586448020    4.2166836992310621    T  T  T           Co11
    4.2576065688180682   12.7776087944514956    4.2166836992310621    T  T  T           Co12
    8.5176065378247205    4.2576080896381496    4.2166836992310621    T  T  T           Co13
    8.5176065378247205    8.5176080586448020    4.2166836992310621    T  T  T           Co14
    8.5176065378247205   12.7776087944514956    4.2166836992310621    T  T  T           Co15
   12.7776072736314141    4.2576080896381496    4.2166836992310621    T  T  T           Co16
   12.7776072736314141    8.5176080586448020    4.2166836992310621    T  T  T           Co17
   12.7776072736314141   12.7776087944514956    4.2166836992310621    T  T  T           Co18
    2.1276056194246897    4.2576080896381496    2.1299999682101918    F  F  F           Co19
    2.1276056194246897    8.5176080586448020    2.1299999682101918    F  F  F           Co20
    2.1276056194246897   12.7776087944514956    2.1299999682101918    F  F  F           Co21
    6.3876057929113532    4.2576080896381496    2.1299999682101918    F  F  F           Co22
    6.3876057929113532    8.5176080586448020    2.1299999682101918    F  F  F           Co23
    6.3876057929113532   12.7776087944514956    2.1299999682101918    F  F  F           Co24
   10.6476061453180257    4.2576080896381496    2.1299999682101918    F  F  F           Co25
   10.6476061453180257    8.5176080586448020    2.1299999682101918    F  F  F           Co26
   10.6476061453180257   12.7776087944514956    2.1299999682101918    F  F  F           Co27
    4.2576065688180682    2.1276040986046083    2.1299999682101918    F  F  F           Co28
    4.2576065688180682    6.3876042720912727    2.1299999682101918    F  F  F           Co29
    4.2576065688180682   10.6476046244979443    2.1299999682101918    F  F  F           Co30
    8.5176065378247205    2.1276040986046083    2.1299999682101918    F  F  F           Co31
    8.5176065378247205    6.3876042720912727    2.1299999682101918    F  F  F           Co32
    8.5176065378247205   10.6476046244979443    2.1299999682101918    F  F  F           Co33
   12.7776072736314141    2.1276040986046083    2.1299999682101918    F  F  F           Co34
   12.7776072736314141    6.3876042720912727    2.1299999682101918    F  F  F           Co35
   12.7776072736314141   10.6476046244979443    2.1299999682101918    F  F  F           Co36
    2.1276056194246897    2.1276040986046083    0.0000000000000000    F  F  F           Co37
    2.1276056194246897    6.3876042720912727    0.0000000000000000    F  F  F           Co38
    2.1276056194246897   10.6476046244979443    0.0000000000000000    F  F  F           Co39
    6.3876057929113532    2.1276040986046083    0.0000000000000000    F  F  F           Co40
    6.3876057929113532    6.3876042720912727    0.0000000000000000    F  F  F           Co41
    6.3876057929113532   10.6476046244979443    0.0000000000000000    F  F  F           Co42
   10.6476061453180257    2.1276040986046083    0.0000000000000000    F  F  F           Co43
   10.6476061453180257    6.3876042720912727    0.0000000000000000    F  F  F           Co44
   10.6476061453180257   10.6476046244979443    0.0000000000000000    F  F  F           Co45
    2.1276056194246897    2.1276040986046083    4.2166836992310621    T  T  T           Co46
    2.1276056194246897    6.3876042720912727    4.2166836992310621    T  T  T           Co47
    2.1276056194246897   10.6476046244979443    4.2166836992310621    T  T  T           Co48
    6.3876057929113532    2.1276040986046083    4.2166836992310621    T  T  T           Co49
    6.3876057929113532    6.3876042720912727    4.2166836992310621    T  T  T           Co50
    6.3876057929113532   10.6476046244979443    4.2166836992310621    T  T  T           Co51
   10.6476061453180257    2.1276040986046083    4.2166836992310621    T  T  T           Co52
   10.6476061453180257    6.3876042720912727    4.2166836992310621    T  T  T           Co53
   10.6476061453180257   10.6476046244979443    4.2166836992310621    T  T  T           Co54
    4.2576054186180077    4.2576096104582328    2.1300009605714285    F  F  F             O1
    4.2576054186180077    8.5176095922448862    2.1300009605714285    F  F  F             O2
    4.2576054186180077   12.7776103280515798    2.1300009605714285    F  F  F             O3
    8.5176057838046830    4.2576096104582328    2.1300009605714285    F  F  F             O4
    8.5176057838046830    8.5176095922448862    2.1300009605714285    F  F  F             O5
    8.5176057838046830   12.7776103280515798    2.1300009605714285    F  F  F             O6
   12.7776057528113327    4.2576096104582328    2.1300009605714285    F  F  F             O7
   12.7776057528113327    8.5176095922448862    2.1300009605714285    F  F  F             O8
   12.7776057528113327   12.7776103280515798    2.1300009605714285    F  F  F             O9
    2.1276067696247520    4.2576096104582328    0.0000000000000000    F  F  F            O10
    2.1276067696247520    8.5176095922448862    0.0000000000000000    F  F  F            O11
    2.1276067696247520   12.7776103280515798    0.0000000000000000    F  F  F            O12
    6.3876069303314171    4.2576096104582328    0.0000000000000000    F  F  F            O13
    6.3876069303314171    8.5176095922448862    0.0000000000000000    F  F  F            O14
    6.3876069303314171   12.7776103280515798    0.0000000000000000    F  F  F            O15
   10.6476069121180679    4.2576096104582328    0.0000000000000000    F  F  F            O16
   10.6476069121180679    8.5176095922448862    0.0000000000000000    F  F  F            O17
   10.6476069121180679   12.7776103280515798    0.0000000000000000    F  F  F            O18
    2.1276067696247520    4.2576096104582328    4.2609832561434686    T  T  T            O19
    2.1276067696247520    8.5176095922448862    4.2609832561434686    T  T  T            O20
    2.1276067696247520   12.7776103280515798    4.2609832561434686    T  T  T            O21
    6.3876069303314171    4.2576096104582328    4.2609832561434686    T  T  T            O22
    6.3876069303314171    8.5176095922448862    4.2609832561434686    T  T  T            O23
    6.3876069303314171   12.7776103280515798    4.2609832561434686    T  T  T            O24
   10.6476069121180679    4.2576096104582328    4.2609832561434686    T  T  T            O25
   10.6476069121180679    8.5176095922448862    4.2609832561434686    T  T  T            O26
   10.6476069121180679   12.7776103280515798    4.2609832561434686    T  T  T            O27
    4.2576054186180077    2.1276025777845269    0.0000000000000000    F  F  F            O28
    4.2576054186180077    6.3876027384911920    0.0000000000000000    F  F  F            O29
    4.2576054186180077   10.6476031036778629    0.0000000000000000    F  F  F            O30
    8.5176057838046830    2.1276025777845269    0.0000000000000000    F  F  F            O31
    8.5176057838046830    6.3876027384911920    0.0000000000000000    F  F  F            O32
    8.5176057838046830   10.6476031036778629    0.0000000000000000    F  F  F            O33
   12.7776057528113327    2.1276025777845269    0.0000000000000000    F  F  F            O34
   12.7776057528113327    6.3876027384911920    0.0000000000000000    F  F  F            O35
   12.7776057528113327   10.6476031036778629    0.0000000000000000    F  F  F            O36
    4.2576054186180077    2.1276025777845269    4.2609832561434686    T  T  T            O37
    4.2576054186180077    6.3876027384911920    4.2609832561434686    T  T  T            O38
    4.2576054186180077   10.6476031036778629    4.2609832561434686    T  T  T            O39
    8.5176057838046830    2.1276025777845269    4.2609832561434686    T  T  T            O40
    8.5176057838046830    6.3876027384911920    4.2609832561434686    T  T  T            O41
    8.5176057838046830   10.6476031036778629    4.2609832561434686    T  T  T            O42
   12.7776057528113327    2.1276025777845269    4.2609832561434686    T  T  T            O43
   12.7776057528113327    6.3876027384911920    4.2609832561434686    T  T  T            O44
   12.7776057528113327   10.6476031036778629    4.2609832561434686    T  T  T            O45
    2.1276067696247520    2.1276025777845269    2.1300009605714285    F  F  F            O46
    2.1276067696247520    6.3876027384911920    2.1300009605714285    F  F  F            O47
    2.1276067696247520   10.6476031036778629    2.1300009605714285    F  F  F            O48
    6.3876069303314171    2.1276025777845269    2.1300009605714285    F  F  F            O49
    6.3876069303314171    6.3876027384911920    2.1300009605714285    F  F  F            O50
    6.3876069303314171   10.6476031036778629    2.1300009605714285    F  F  F            O51
   10.6476069121180679    2.1276025777845269    2.1300009605714285    F  F  F            O52
   10.6476069121180679    6.3876027384911920    2.1300009605714285    F  F  F            O53
   10.6476069121180679   10.6476031036778629    2.1300009605714285    F  F  F            O54
    6.2003570002074442    5.9277461572466095   18.3045767111175017    T  T  T             C1
    7.2330843328101082    6.9938206456499650   18.3166107111173027    T  T  T             C2
    5.0682210607717133    5.9891428248435323   19.1440897111172958    T  T  T             C3
    6.3080974462433410    4.8089985776058901   17.4534887111172985    T  T  T             C4
    8.3693526042750150    6.9279338499926304   17.4830437111173005    T  T  T             C5
    7.1215339954371863    8.1167387410862037   19.1617097111173038    T  T  T             C6
    4.1012900141585673    4.9931638316591043   19.1347987111175009    T  T  T             C7
    5.3446347583918525    3.8072828271058055   17.4384737111173003    T  T  T             C8
    9.3363925453325844    7.9237615223257176   17.4919277111176044    T  T  T             C9
    8.0858954160076042    9.1176250553319420   19.1773697111174997    T  T  T            C10
    4.2272709867218721    3.8883490840348749   18.2814017111174003    T  T  T            C11
    9.2071793876724382    9.0322298906883560   18.3400787111173003    T  T  T            C12
    3.1686303119091184    2.8512893081840058   18.3099897111174030    T  T  T            C13
   10.2668651663078201   10.0682389058625290   18.3120827111175970    T  T  T            C14
    3.4035099714158554    1.8258034561275396   17.4332757111173038    T  T  T             O1
    2.1781554379094921    2.8774770078251644   19.0276547111174992    T  T  T             O2
   10.0308322156409151   11.0958284005929517   19.1859957111173998    T  T  T             O3
   11.2592492286165342   10.0394476390528649   17.5971647111171983    T  T  T             O4
    4.9317841002350002    6.8286871706124312   19.8224877111172013    T  T  T             H1
    7.1593953209290513    4.7085406243095278   16.7835547111173007    T  T  T             H2
    8.5094721769281811    6.0844438483847112   16.8103457111174990    T  T  T             H3
    6.2661971268172829    8.2215241878834071   19.8258417111175049    T  T  T             H4
    3.2312969432849910    5.0520460275421204   19.7880447111175997    T  T  T             H5
    5.4551802970285950    2.9548507531429595   16.7706867111174951    T  T  T             H6
   10.2092805113683003    7.8616252210358333   16.8428617111176031    T  T  T             H7
    7.9728290416958192    9.9730036432518787   19.8409647111175005    T  T  T             H8
    2.6493268491649515    1.2111395728726193   17.5402137111174952    T  T  T             H9
   10.7859501330564420   11.7094401089574980   19.0795507111171965    T  T  T            H10
