 Generated by VASPKIT code
   1.000
   12.7800006865999993    0.0000000000000000    0.0000000000000000
    0.0000000000000000   12.7800006865999993    0.0000000000000000
    0.0000000000000000    0.0000000000000000   44.9309647111174968
   C    O    H 
   14    4   10
Selective Dynamics
Cartesian
    6.2003570002074442    5.9277461572466095   18.3045767111175017    T  T  T             C1
    7.2330843328101082    6.9938206456499650   18.3166107111173027    T  T  T             C2
    5.0682210607717133    5.9891428248435323   19.1440897111172958    T  T  T             C3
    6.3080974462433410    4.8089985776058901   17.4534887111172985    T  T  T             C4
    8.3693526042750150    6.9279338499926304   17.4830437111173005    T  T  T             C5
    7.1215339954371863    8.1167387410862037   19.1617097111173038    T  T  T             C6
    4.1012900141585673    4.9931638316591043   19.1347987111175009    T  T  T             C7
    5.3446347583918525    3.8072828271058055   17.4384737111173003    T  T  T             C8
    9.3363925453325844    7.9237615223257176   17.4919277111176044    T  T  T             C9
    8.0858954160076042    9.1176250553319420   19.1773697111174997    T  T  T            C10
    4.2272709867218721    3.8883490840348749   18.2814017111174003    T  T  T            C11
    9.2071793876724382    9.0322298906883560   18.3400787111173003    T  T  T            C12
    3.1686303119091184    2.8512893081840058   18.3099897111174030    T  T  T            C13
   10.2668651663078201   10.0682389058625290   18.3120827111175970    T  T  T            C14
    3.4035099714158554    1.8258034561275396   17.4332757111173038    T  T  T             O1
    2.1781554379094921    2.8774770078251644   19.0276547111174992    T  T  T             O2
   10.0308322156409151   11.0958284005929517   19.1859957111173998    T  T  T             O3
   11.2592492286165342   10.0394476390528649   17.5971647111171983    T  T  T             O4
    4.9317841002350002    6.8286871706124312   19.8224877111172013    T  T  T             H1
    7.1593953209290513    4.7085406243095278   16.7835547111173007    T  T  T             H2
    8.5094721769281811    6.0844438483847112   16.8103457111174990    T  T  T             H3
    6.2661971268172829    8.2215241878834071   19.8258417111175049    T  T  T             H4
    3.2312969432849910    5.0520460275421204   19.7880447111175997    T  T  T             H5
    5.4551802970285950    2.9548507531429595   16.7706867111174951    T  T  T             H6
   10.2092805113683003    7.8616252210358333   16.8428617111176031    T  T  T             H7
    7.9728290416958192    9.9730036432518787   19.8409647111175005    T  T  T             H8
    2.6493268491649515    1.2111395728726193   17.5402137111174952    T  T  T             H9
   10.7859501330564420   11.7094401089574980   19.0795507111171965    T  T  T            H10
