 Generated by VASPKIT code
   1.000
   12.7800006865999993    0.0000000000000000    0.0000000000000000
    0.0000000000000000   12.7800006865999993    0.0000000000000000
    0.0000000000000000    0.0000000000000000   47.5378840412763992
   Co   O  
   54   54 
Selective Dynamics
Direct
    0.3331460360000000    0.3331461550000000    0.0469099753932873    F  F  F            Co1
    0.3331460360000000    0.6664794680000000    0.0469099753932873    F  F  F            Co2
    0.3331460360000000    0.9998128410000000    0.0469099753932873    F  F  F            Co3
    0.6664793490000001    0.3331461550000000    0.0469099753932873    F  F  F            Co4
    0.6664793490000001    0.6664794680000000    0.0469099753932873    F  F  F            Co5
    0.6664793490000001    0.9998128410000000    0.0469099753932873    F  F  F            Co6
    0.9998127220000000    0.3331461550000000    0.0469099753932873    F  F  F            Co7
    0.9998127220000000    0.6664794680000000    0.0469099753932873    F  F  F            Co8
    0.9998127220000000    0.9998128410000000    0.0469099753932873    F  F  F            Co9
    0.1664793040000000    0.3331461550000000    0.0021035854434637    F  F  F           Co10
    0.1664793040000000    0.6664794680000000    0.0021035854434637    F  F  F           Co11
    0.1664793040000000    0.9998128410000000    0.0021035854434637    F  F  F           Co12
    0.4998126330000000    0.3331461550000000    0.0021035854434637    F  F  F           Co13
    0.4998126330000000    0.6664794680000000    0.0021035854434637    F  F  F           Co14
    0.4998126330000000    0.9998128410000000    0.0021035854434637    F  F  F           Co15
    0.8331459760000000    0.3331461550000000    0.0021035854434637    F  F  F           Co16
    0.8331459760000000    0.6664794680000000    0.0021035854434637    F  F  F           Co17
    0.8331459760000000    0.9998128410000000    0.0021035854434637    F  F  F           Co18
    0.1664793040000000    0.3331461550000000    0.0908001535806583    T  T  T           Co19
    0.1664793040000000    0.6664794680000000    0.0908001535806583    T  T  T           Co20
    0.1664793040000000    0.9998128410000000    0.0908001535806583    T  T  T           Co21
    0.4998126330000000    0.3331461550000000    0.0908001535806583    T  T  T           Co22
    0.4998126330000000    0.6664794680000000    0.0908001535806583    T  T  T           Co23
    0.4998126330000000    0.9998128410000000    0.0908001535806583    T  T  T           Co24
    0.8331459760000000    0.3331461550000000    0.0908001535806583    T  T  T           Co25
    0.8331459760000000    0.6664794680000000    0.0908001535806583    T  T  T           Co26
    0.8331459760000000    0.9998128410000000    0.0908001535806583    T  T  T           Co27
    0.3331460360000000    0.1664791850000000    0.0021035854434637    F  F  F           Co28
    0.3331460360000000    0.4998125140000000    0.0021035854434637    F  F  F           Co29
    0.3331460360000000    0.8331458570000000    0.0021035854434637    F  F  F           Co30
    0.6664793490000001    0.1664791850000000    0.0021035854434637    F  F  F           Co31
    0.6664793490000001    0.4998125140000000    0.0021035854434637    F  F  F           Co32
    0.6664793490000001    0.8331458570000000    0.0021035854434637    F  F  F           Co33
    0.9998127220000000    0.1664791850000000    0.0021035854434637    F  F  F           Co34
    0.9998127220000000    0.4998125140000000    0.0021035854434637    F  F  F           Co35
    0.9998127220000000    0.8331458570000000    0.0021035854434637    F  F  F           Co36
    0.3331460360000000    0.1664791850000000    0.0908001535806583    T  T  T           Co37
    0.3331460360000000    0.4998125140000000    0.0908001535806583    T  T  T           Co38
    0.3331460360000000    0.8331458570000000    0.0908001535806583    T  T  T           Co39
    0.6664793490000001    0.1664791850000000    0.0908001535806583    T  T  T           Co40
    0.6664793490000001    0.4998125140000000    0.0908001535806583    T  T  T           Co41
    0.6664793490000001    0.8331458570000000    0.0908001535806583    T  T  T           Co42
    0.9998127220000000    0.1664791850000000    0.0908001535806583    T  T  T           Co43
    0.9998127220000000    0.4998125140000000    0.0908001535806583    T  T  T           Co44
    0.9998127220000000    0.8331458570000000    0.0908001535806583    T  T  T           Co45
    0.1664793040000000    0.1664791850000000    0.0469099753932873    F  F  F           Co46
    0.1664793040000000    0.4998125140000000    0.0469099753932873    F  F  F           Co47
    0.1664793040000000    0.8331458570000000    0.0469099753932873    F  F  F           Co48
    0.4998126330000000    0.1664791850000000    0.0469099753932873    F  F  F           Co49
    0.4998126330000000    0.4998125140000000    0.0469099753932873    F  F  F           Co50
    0.4998126330000000    0.8331458570000000    0.0469099753932873    F  F  F           Co51
    0.8331459760000000    0.1664791850000000    0.0469099753932873    F  F  F           Co52
    0.8331459760000000    0.4998125140000000    0.0469099753932873    F  F  F           Co53
    0.8331459760000000    0.8331458570000000    0.0469099753932873    F  F  F           Co54
    0.3331459460000001    0.3331462740000001    0.0021036069862823    F  F  F             O1
    0.3331459460000001    0.6664795880000002    0.0021036069862823    F  F  F             O2
    0.3331459460000001    0.9998129610000002    0.0021036069862823    F  F  F             O3
    0.6664792900000002    0.3331462740000001    0.0021036069862823    F  F  F             O4
    0.6664792900000002    0.6664795880000002    0.0021036069862823    F  F  F             O5
    0.6664792900000002    0.9998129610000002    0.0021036069862823    F  F  F             O6
    0.9998126030000001    0.3331462740000001    0.0021036069862823    F  F  F             O7
    0.9998126030000001    0.6664795880000002    0.0021036069862823    F  F  F             O8
    0.9998126030000001    0.9998129610000002    0.0021036069862823    F  F  F             O9
    0.3331459460000001    0.3331462740000001    0.0917374108302630    T  T  T            O10
    0.3331459460000001    0.6664795880000002    0.0917374108302630    T  T  T            O11
    0.3331459460000001    0.9998129610000002    0.0917374108302630    T  T  T            O12
    0.6664792900000002    0.3331462740000001    0.0917374108302630    T  T  T            O13
    0.6664792900000002    0.6664795880000002    0.0917374108302630    T  T  T            O14
    0.6664792900000002    0.9998129610000002    0.0917374108302630    T  T  T            O15
    0.9998126030000001    0.3331462740000001    0.0917374108302630    T  T  T            O16
    0.9998126030000001    0.6664795880000002    0.0917374108302630    T  T  T            O17
    0.9998126030000001    0.9998129610000002    0.0917374108302630    T  T  T            O18
    0.1664793940000000    0.3331462740000001    0.0469099526194506    F  F  F            O19
    0.1664793940000000    0.6664795880000002    0.0469099526194506    F  F  F            O20
    0.1664793940000000    0.9998129610000002    0.0469099526194506    F  F  F            O21
    0.4998127220000000    0.3331462740000001    0.0469099526194506    F  F  F            O22
    0.4998127220000000    0.6664795880000002    0.0469099526194506    F  F  F            O23
    0.4998127220000000    0.9998129610000002    0.0469099526194506    F  F  F            O24
    0.8331460360000000    0.3331462740000001    0.0469099526194506    F  F  F            O25
    0.8331460360000000    0.6664795880000002    0.0469099526194506    F  F  F            O26
    0.8331460360000000    0.9998129610000002    0.0469099526194506    F  F  F            O27
    0.3331459460000001    0.1664790660000000    0.0469099526194506    F  F  F            O28
    0.3331459460000001    0.4998123940000000    0.0469099526194506    F  F  F            O29
    0.3331459460000001    0.8331457380000000    0.0469099526194506    F  F  F            O30
    0.6664792900000002    0.1664790660000000    0.0469099526194506    F  F  F            O31
    0.6664792900000002    0.4998123940000000    0.0469099526194506    F  F  F            O32
    0.6664792900000002    0.8331457380000000    0.0469099526194506    F  F  F            O33
    0.9998126030000001    0.1664790660000000    0.0469099526194506    F  F  F            O34
    0.9998126030000001    0.4998123940000000    0.0469099526194506    F  F  F            O35
    0.9998126030000001    0.8331457380000000    0.0469099526194506    F  F  F            O36
    0.1664793940000000    0.1664790660000000    0.0021036069862823    F  F  F            O37
    0.1664793940000000    0.4998123940000000    0.0021036069862823    F  F  F            O38
    0.1664793940000000    0.8331457380000000    0.0021036069862823    F  F  F            O39
    0.4998127220000000    0.1664790660000000    0.0021036069862823    F  F  F            O40
    0.4998127220000000    0.4998123940000000    0.0021036069862823    F  F  F            O41
    0.4998127220000000    0.8331457380000000    0.0021036069862823    F  F  F            O42
    0.8331460360000000    0.1664790660000000    0.0021036069862823    F  F  F            O43
    0.8331460360000000    0.4998123940000000    0.0021036069862823    F  F  F            O44
    0.8331460360000000    0.8331457380000000    0.0021036069862823    F  F  F            O45
    0.1664793940000000    0.1664790660000000    0.0917374108302630    T  T  T            O46
    0.1664793940000000    0.4998123940000000    0.0917374108302630    T  T  T            O47
    0.1664793940000000    0.8331457380000000    0.0917374108302630    T  T  T            O48
    0.4998127220000000    0.1664790660000000    0.0917374108302630    T  T  T            O49
    0.4998127220000000    0.4998123940000000    0.0917374108302630    T  T  T            O50
    0.4998127220000000    0.8331457380000000    0.0917374108302630    T  T  T            O51
    0.8331460360000000    0.1664790660000000    0.0917374108302630    T  T  T            O52
    0.8331460360000000    0.4998123940000000    0.0917374108302630    T  T  T            O53
    0.8331460360000000    0.8331457380000000    0.0917374108302630    T  T  T            O54
