 Generated by VASPKIT code
   1.000
   12.7800006865999993    0.0000000000000000    0.0000000000000000
    0.0000000000000000   12.7800006865999993    0.0000000000000000
    0.0000000000000000    0.0000000000000000   47.5378840412763992
   Co   O    C    O    H 
   54   54   14    4   10
Selective Dynamics
Direct
    0.3331460360000000    0.3331461550000000    0.0469099753932873    F  F  F            Co1
    0.3331460360000000    0.6664794680000000    0.0469099753932873    F  F  F            Co2
    0.3331460360000000    0.9998128410000000    0.0469099753932873    F  F  F            Co3
    0.6664793490000001    0.3331461550000000    0.0469099753932873    F  F  F            Co4
    0.6664793490000001    0.6664794680000000    0.0469099753932873    F  F  F            Co5
    0.6664793490000001    0.9998128410000000    0.0469099753932873    F  F  F            Co6
    0.9998127220000000    0.3331461550000000    0.0469099753932873    F  F  F            Co7
    0.9998127220000000    0.6664794680000000    0.0469099753932873    F  F  F            Co8
    0.9998127220000000    0.9998128410000000    0.0469099753932873    F  F  F            Co9
    0.1664793040000000    0.3331461550000000    0.0021035854434637    F  F  F           Co10
    0.1664793040000000    0.6664794680000000    0.0021035854434637    F  F  F           Co11
    0.1664793040000000    0.9998128410000000    0.0021035854434637    F  F  F           Co12
    0.4998126330000000    0.3331461550000000    0.0021035854434637    F  F  F           Co13
    0.4998126330000000    0.6664794680000000    0.0021035854434637    F  F  F           Co14
    0.4998126330000000    0.9998128410000000    0.0021035854434637    F  F  F           Co15
    0.8331459760000000    0.3331461550000000    0.0021035854434637    F  F  F           Co16
    0.8331459760000000    0.6664794680000000    0.0021035854434637    F  F  F           Co17
    0.8331459760000000    0.9998128410000000    0.0021035854434637    F  F  F           Co18
    0.1664793040000000    0.3331461550000000    0.0908001535806583    T  T  T           Co19
    0.1664793040000000    0.6664794680000000    0.0908001535806583    T  T  T           Co20
    0.1664793040000000    0.9998128410000000    0.0908001535806583    T  T  T           Co21
    0.4998126330000000    0.3331461550000000    0.0908001535806583    T  T  T           Co22
    0.4998126330000000    0.6664794680000000    0.0908001535806583    T  T  T           Co23
    0.4998126330000000    0.9998128410000000    0.0908001535806583    T  T  T           Co24
    0.8331459760000000    0.3331461550000000    0.0908001535806583    T  T  T           Co25
    0.8331459760000000    0.6664794680000000    0.0908001535806583    T  T  T           Co26
    0.8331459760000000    0.9998128410000000    0.0908001535806583    T  T  T           Co27
    0.3331460360000000    0.1664791850000000    0.0021035854434637    F  F  F           Co28
    0.3331460360000000    0.4998125140000000    0.0021035854434637    F  F  F           Co29
    0.3331460360000000    0.8331458570000000    0.0021035854434637    F  F  F           Co30
    0.6664793490000001    0.1664791850000000    0.0021035854434637    F  F  F           Co31
    0.6664793490000001    0.4998125140000000    0.0021035854434637    F  F  F           Co32
    0.6664793490000001    0.8331458570000000    0.0021035854434637    F  F  F           Co33
    0.9998127220000000    0.1664791850000000    0.0021035854434637    F  F  F           Co34
    0.9998127220000000    0.4998125140000000    0.0021035854434637    F  F  F           Co35
    0.9998127220000000    0.8331458570000000    0.0021035854434637    F  F  F           Co36
    0.3331460360000000    0.1664791850000000    0.0908001535806583    T  T  T           Co37
    0.3331460360000000    0.4998125140000000    0.0908001535806583    T  T  T           Co38
    0.3331460360000000    0.8331458570000000    0.0908001535806583    T  T  T           Co39
    0.6664793490000001    0.1664791850000000    0.0908001535806583    T  T  T           Co40
    0.6664793490000001    0.4998125140000000    0.0908001535806583    T  T  T           Co41
    0.6664793490000001    0.8331458570000000    0.0908001535806583    T  T  T           Co42
    0.9998127220000000    0.1664791850000000    0.0908001535806583    T  T  T           Co43
    0.9998127220000000    0.4998125140000000    0.0908001535806583    T  T  T           Co44
    0.9998127220000000    0.8331458570000000    0.0908001535806583    T  T  T           Co45
    0.1664793040000000    0.1664791850000000    0.0469099753932873    F  F  F           Co46
    0.1664793040000000    0.4998125140000000    0.0469099753932873    F  F  F           Co47
    0.1664793040000000    0.8331458570000000    0.0469099753932873    F  F  F           Co48
    0.4998126330000000    0.1664791850000000    0.0469099753932873    F  F  F           Co49
    0.4998126330000000    0.4998125140000000    0.0469099753932873    F  F  F           Co50
    0.4998126330000000    0.8331458570000000    0.0469099753932873    F  F  F           Co51
    0.8331459760000000    0.1664791850000000    0.0469099753932873    F  F  F           Co52
    0.8331459760000000    0.4998125140000000    0.0469099753932873    F  F  F           Co53
    0.8331459760000000    0.8331458570000000    0.0469099753932873    F  F  F           Co54
    0.3331459460000001    0.3331462740000001    0.0021036069862823    F  F  F             O1
    0.3331459460000001    0.6664795880000002    0.0021036069862823    F  F  F             O2
    0.3331459460000001    0.9998129610000002    0.0021036069862823    F  F  F             O3
    0.6664792900000002    0.3331462740000001    0.0021036069862823    F  F  F             O4
    0.6664792900000002    0.6664795880000002    0.0021036069862823    F  F  F             O5
    0.6664792900000002    0.9998129610000002    0.0021036069862823    F  F  F             O6
    0.9998126030000001    0.3331462740000001    0.0021036069862823    F  F  F             O7
    0.9998126030000001    0.6664795880000002    0.0021036069862823    F  F  F             O8
    0.9998126030000001    0.9998129610000002    0.0021036069862823    F  F  F             O9
    0.3331459460000001    0.3331462740000001    0.0917374108302630    T  T  T            O10
    0.3331459460000001    0.6664795880000002    0.0917374108302630    T  T  T            O11
    0.3331459460000001    0.9998129610000002    0.0917374108302630    T  T  T            O12
    0.6664792900000002    0.3331462740000001    0.0917374108302630    T  T  T            O13
    0.6664792900000002    0.6664795880000002    0.0917374108302630    T  T  T            O14
    0.6664792900000002    0.9998129610000002    0.0917374108302630    T  T  T            O15
    0.9998126030000001    0.3331462740000001    0.0917374108302630    T  T  T            O16
    0.9998126030000001    0.6664795880000002    0.0917374108302630    T  T  T            O17
    0.9998126030000001    0.9998129610000002    0.0917374108302630    T  T  T            O18
    0.1664793940000000    0.3331462740000001    0.0469099526194506    F  F  F            O19
    0.1664793940000000    0.6664795880000002    0.0469099526194506    F  F  F            O20
    0.1664793940000000    0.9998129610000002    0.0469099526194506    F  F  F            O21
    0.4998127220000000    0.3331462740000001    0.0469099526194506    F  F  F            O22
    0.4998127220000000    0.6664795880000002    0.0469099526194506    F  F  F            O23
    0.4998127220000000    0.9998129610000002    0.0469099526194506    F  F  F            O24
    0.8331460360000000    0.3331462740000001    0.0469099526194506    F  F  F            O25
    0.8331460360000000    0.6664795880000002    0.0469099526194506    F  F  F            O26
    0.8331460360000000    0.9998129610000002    0.0469099526194506    F  F  F            O27
    0.3331459460000001    0.1664790660000000    0.0469099526194506    F  F  F            O28
    0.3331459460000001    0.4998123940000000    0.0469099526194506    F  F  F            O29
    0.3331459460000001    0.8331457380000000    0.0469099526194506    F  F  F            O30
    0.6664792900000002    0.1664790660000000    0.0469099526194506    F  F  F            O31
    0.6664792900000002    0.4998123940000000    0.0469099526194506    F  F  F            O32
    0.6664792900000002    0.8331457380000000    0.0469099526194506    F  F  F            O33
    0.9998126030000001    0.1664790660000000    0.0469099526194506    F  F  F            O34
    0.9998126030000001    0.4998123940000000    0.0469099526194506    F  F  F            O35
    0.9998126030000001    0.8331457380000000    0.0469099526194506    F  F  F            O36
    0.1664793940000000    0.1664790660000000    0.0021036069862823    F  F  F            O37
    0.1664793940000000    0.4998123940000000    0.0021036069862823    F  F  F            O38
    0.1664793940000000    0.8331457380000000    0.0021036069862823    F  F  F            O39
    0.4998127220000000    0.1664790660000000    0.0021036069862823    F  F  F            O40
    0.4998127220000000    0.4998123940000000    0.0021036069862823    F  F  F            O41
    0.4998127220000000    0.8331457380000000    0.0021036069862823    F  F  F            O42
    0.8331460360000000    0.1664790660000000    0.0021036069862823    F  F  F            O43
    0.8331460360000000    0.4998123940000000    0.0021036069862823    F  F  F            O44
    0.8331460360000000    0.8331457380000000    0.0021036069862823    F  F  F            O45
    0.1664793940000000    0.1664790660000000    0.0917374108302630    T  T  T            O46
    0.1664793940000000    0.4998123940000000    0.0917374108302630    T  T  T            O47
    0.1664793940000000    0.8331457380000000    0.0917374108302630    T  T  T            O48
    0.4998127220000000    0.1664790660000000    0.0917374108302630    T  T  T            O49
    0.4998127220000000    0.4998123940000000    0.0917374108302630    T  T  T            O50
    0.4998127220000000    0.8331457380000000    0.0917374108302630    T  T  T            O51
    0.8331460360000000    0.1664790660000000    0.0917374108302630    T  T  T            O52
    0.8331460360000000    0.4998123940000000    0.0917374108302630    T  T  T            O53
    0.8331460360000000    0.8331457380000000    0.0917374108302630    T  T  T            O54
    1.1745822998877635    1.1732334212311806    0.5614844272357105    T  T  T             C1
    1.1727372572313921    1.1741750145379755    0.5302656001337344    T  T  T             C2
    1.1085451739726364    1.2389229895289668    0.5774112370283361    T  T  T             C3
    1.2424428288587652    1.1066380843770756    0.5765227545980279    T  T  T             C4
    1.2392514866263142    1.1089507188355794    0.5143441050947815    T  T  T             C5
    1.1044350844984470    1.2403016984648418    0.5152219164790400    T  T  T             C6
    1.1101523566135316    1.2381960212798790    0.6066087285467771    T  T  T             C7
    1.2445593695488664    1.1054632431589273    0.6057539910680618    T  T  T             C8
    1.2376586706222601    1.1096458771959175    0.4851472390986517    T  T  T             C9
    1.1024141995018240    1.2415270729005576    0.4859896422899661    T  T  T            C10
    1.1782512232512112    1.1714199931557627    0.6211684906046386    T  T  T            C11
    1.1691787551881352    1.1760113661431710    0.4705812280135439    T  T  T            C12
    1.1770571867724811    1.1736569862925625    0.6523411957042515    T  T  T            C13
    1.1704888167930234    1.1738207516161552    0.4394086151831263    T  T  T            C14
    1.2467921616277431    1.1050564697423744    0.6641011395913267    T  T  T             O1
    1.1208061077998819    1.2298122765128261    0.6666845619121849    T  T  T             O2
    1.1005736180218244    1.2422020153304512    0.4276345194265460    T  T  T             O3
    1.2269895592931459    1.1178803467362191    0.4250755611235476    T  T  T             O4
    1.0545449163369380    1.2920057721181470    0.5669528149402471    T  T  T             H1
    1.2951027059086793    1.0542176048263336    0.5653543068404983    T  T  T             H2
    1.2936737753172258    1.0563139155075336    0.5248064615400546    T  T  T             H3
    1.0513123304748475    1.2922682286632596    0.5263860663471303    T  T  T             H4
    1.0587584373569805    1.2893107326148734    0.6186736831558421    T  T  T             H5
    1.2978400920715141    1.0532107177992618    0.6167892530645929    T  T  T             H6
    1.2893927623995896    1.0588581892581679    0.4730876465211692    T  T  T             H7
    1.0488309932331747    1.2934515177607435    0.4749480478522720    T  T  T             H8
    1.2390726933335603    1.1134241071256661    0.6844621862644173    T  T  T             H9
    1.1084030588731273    1.2338730234421962    0.4072752245658462    T  T  T            H10
