SYSTEM = CoO Bulk Cubic Fm3m
GGA =PE
ISTART = 0 # Start a new calculation
ICHARG = 2  # Charge density from atomic positions
PREC   = Accurate  # High precision calculations
LASPH = .TRUE.
ISMEAR = 0  # Gaussian smearing (for insulators)
SIGMA  = 0.03  # Small smearing for electronic convergence
ENCUT  = 600  # Plane-wave energy cutoff (eV)
EDIFF  = 1E-6  # Energy convergence criteria (eV)
NELM   = 900  # Maximum number of electronic SCF steps
LREAL=Auto
LMAXMIX=4
ISPIN  = 2  # Spin-polarized calculation
MAGMOM = 27*5 27*-5 82*0.0  # Initial magnetic moments for Co in AFII configuration
ALGO   = Veryfast    # Fast algorithm (default: RMM-DIIS)
NELMIN = 5       # Minimum number of electronic iterations
ISIF    = 2      # Relax both ions and cell shape/volume
NSW     = 0    # Maximum number of ionic steps
IBRION  = -1      # Conjugate gradient algorithm for relaxation
EDIFFG  = -0.001  # Force convergence criterion (eV/Å)
LDAU = .TRUE.
LDAUTYPE =2
LDAUL = 2 -1 -1 -1 -1
LDAUU = 3.0 0 0 0 0
LDAUJ = 0 0 0 0 0
LWAVE=.FALSE.
LCHARG=.FALSE.
LDAUPRINT = 0
LORBIT =11
NCORE=8
KPAR=2
