Generated by VASPKIT code
 1.000000
   12.7800006865999993    0.0000000000000000    0.0000000000000000
    0.0000000000000000   12.7800006865999993    0.0000000000000000
    0.0000000000000000    0.0000000000000000   62.4378814697000024
   Co   O    C    O    H 
    54    54    14     4    10
Selective Dynamics
Direct
    0.3331460360000000    0.3331461550000000    0.0357155130000000    F  F  F            Co1
    0.3331460360000000    0.6664794680000000    0.0357155130000000    F  F  F            Co2
    0.3331460360000000    0.9998128410000000    0.0357155130000000    F  F  F            Co3
    0.6664793490000001    0.3331461550000000    0.0357155130000000    F  F  F            Co4
    0.6664793490000001    0.6664794680000000    0.0357155130000000    F  F  F            Co5
    0.6664793490000001    0.9998128410000000    0.0357155130000000    F  F  F            Co6
    0.9998127220000000    0.3331461550000000    0.0357155130000000    F  F  F            Co7
    0.9998127220000000    0.6664794680000000    0.0357155130000000    F  F  F            Co8
    0.9998127220000000    0.9998128410000000    0.0357155130000000    F  F  F            Co9
    0.1664793040000000    0.3331461550000000    0.0016015920000000    F  F  F           Co10
    0.1664793040000000    0.6664794680000000    0.0016015920000000    F  F  F           Co11
    0.1664793040000000    0.9998128410000000    0.0016015920000000    F  F  F           Co12
    0.4998126330000000    0.3331461550000000    0.0016015920000000    F  F  F           Co13
    0.4998126330000000    0.6664794680000000    0.0016015920000000    F  F  F           Co14
    0.4998126330000000    0.9998128410000000    0.0016015920000000    F  F  F           Co15
    0.8331459760000000    0.3331461550000000    0.0016015920000000    F  F  F           Co16
    0.8331459760000000    0.6664794680000000    0.0016015920000000    F  F  F           Co17
    0.8331459760000000    0.9998128410000000    0.0016015920000000    F  F  F           Co18
    0.1664793040000000    0.3331461550000000    0.0691325740000000    T  T  T           Co19
    0.1664793040000000    0.6664794680000000    0.0691325740000000    T  T  T           Co20
    0.1664793040000000    0.9998128410000000    0.0691325740000000    T  T  T           Co21
    0.4998126330000000    0.3331461550000000    0.0691325740000000    T  T  T           Co22
    0.4998126330000000    0.6664794680000000    0.0691325740000000    T  T  T           Co23
    0.4998126330000000    0.9998128410000000    0.0691325740000000    T  T  T           Co24
    0.8331459760000000    0.3331461550000000    0.0691325740000000    T  T  T           Co25
    0.8331459760000000    0.6664794680000000    0.0691325740000000    T  T  T           Co26
    0.8331459760000000    0.9998128410000000    0.0691325740000000    T  T  T           Co27
    0.3331460360000000    0.1664791850000000    0.0016015920000000    F  F  F           Co28
    0.3331460360000000    0.4998125140000001    0.0016015920000000    F  F  F           Co29
    0.3331460360000000    0.8331458570000000    0.0016015920000000    F  F  F           Co30
    0.6664793490000001    0.1664791850000000    0.0016015920000000    F  F  F           Co31
    0.6664793490000001    0.4998125140000001    0.0016015920000000    F  F  F           Co32
    0.6664793490000001    0.8331458570000000    0.0016015920000000    F  F  F           Co33
    0.9998127220000000    0.1664791850000000    0.0016015920000000    F  F  F           Co34
    0.9998127220000000    0.4998125140000001    0.0016015920000000    F  F  F           Co35
    0.9998127220000000    0.8331458570000000    0.0016015920000000    F  F  F           Co36
    0.3331460360000000    0.1664791850000000    0.0691325740000000    T  T  T           Co37
    0.3331460360000000    0.4998125140000001    0.0691325740000000    T  T  T           Co38
    0.3331460360000000    0.8331458570000000    0.0691325740000000    T  T  T           Co39
    0.6664793490000001    0.1664791850000000    0.0691325740000000    T  T  T           Co40
    0.6664793490000001    0.4998125140000001    0.0691325740000000    T  T  T           Co41
    0.6664793490000001    0.8331458570000000    0.0691325740000000    T  T  T           Co42
    0.9998127220000000    0.1664791850000000    0.0691325740000000    T  T  T           Co43
    0.9998127220000000    0.4998125140000001    0.0691325740000000    T  T  T           Co44
    0.9998127220000000    0.8331458570000000    0.0691325740000000    T  T  T           Co45
    0.1664793040000000    0.1664791850000000    0.0357155130000000    F  F  F           Co46
    0.1664793040000000    0.4998125140000001    0.0357155130000000    F  F  F           Co47
    0.1664793040000000    0.8331458570000000    0.0357155130000000    F  F  F           Co48
    0.4998126330000000    0.1664791850000000    0.0357155130000000    F  F  F           Co49
    0.4998126330000000    0.4998125140000001    0.0357155130000000    F  F  F           Co50
    0.4998126330000000    0.8331458570000000    0.0357155130000000    F  F  F           Co51
    0.8331459760000000    0.1664791850000000    0.0357155130000000    F  F  F           Co52
    0.8331459760000000    0.4998125140000001    0.0357155130000000    F  F  F           Co53
    0.8331459760000000    0.8331458570000000    0.0357155130000000    F  F  F           Co54
    0.3331459460000001    0.3331462740000001    0.0016016080000000    F  F  F             O1
    0.3331459460000001    0.6664795880000002    0.0016016080000000    F  F  F             O2
    0.3331459460000001    0.9998129610000002    0.0016016080000000    F  F  F             O3
    0.6664792900000002    0.3331462740000001    0.0016016080000000    F  F  F             O4
    0.6664792900000002    0.6664795880000002    0.0016016080000000    F  F  F             O5
    0.6664792900000002    0.9998129610000002    0.0016016080000000    F  F  F             O6
    0.9998126030000001    0.3331462740000001    0.0016016080000000    F  F  F             O7
    0.9998126030000001    0.6664795880000002    0.0016016080000000    F  F  F             O8
    0.9998126030000001    0.9998129610000002    0.0016016080000000    F  F  F             O9
    0.3331459460000001    0.3331462740000001    0.0698377640000000    T  T  T            O10
    0.3331459460000001    0.6664795880000002    0.0698377640000000    T  T  T            O11
    0.3331459460000001    0.9998129610000002    0.0698377640000000    T  T  T            O12
    0.6664792900000002    0.3331462740000001    0.0698377640000000    T  T  T            O13
    0.6664792900000002    0.6664795880000002    0.0698377640000000    T  T  T            O14
    0.6664792900000002    0.9998129610000002    0.0698377640000000    T  T  T            O15
    0.9998126030000001    0.3331462740000001    0.0698377640000000    T  T  T            O16
    0.9998126030000001    0.6664795880000002    0.0698377640000000    T  T  T            O17
    0.9998126030000001    0.9998129610000002    0.0698377640000000    T  T  T            O18
    0.1664793940000000    0.3331462740000001    0.0357154940000000    F  F  F            O19
    0.1664793940000000    0.6664795880000002    0.0357154940000000    F  F  F            O20
    0.1664793940000000    0.9998129610000002    0.0357154940000000    F  F  F            O21
    0.4998127220000001    0.3331462740000001    0.0357154940000000    F  F  F            O22
    0.4998127220000001    0.6664795880000002    0.0357154940000000    F  F  F            O23
    0.4998127220000001    0.9998129610000002    0.0357154940000000    F  F  F            O24
    0.8331460360000000    0.3331462740000001    0.0357154940000000    F  F  F            O25
    0.8331460360000000    0.6664795880000002    0.0357154940000000    F  F  F            O26
    0.8331460360000000    0.9998129610000002    0.0357154940000000    F  F  F            O27
    0.3331459460000001    0.1664790660000000    0.0357154940000000    F  F  F            O28
    0.3331459460000001    0.4998123940000001    0.0357154940000000    F  F  F            O29
    0.3331459460000001    0.8331457380000000    0.0357154940000000    F  F  F            O30
    0.6664792900000002    0.1664790660000000    0.0357154940000000    F  F  F            O31
    0.6664792900000002    0.4998123940000001    0.0357154940000000    F  F  F            O32
    0.6664792900000002    0.8331457380000000    0.0357154940000000    F  F  F            O33
    0.9998126030000001    0.1664790660000000    0.0357154940000000    F  F  F            O34
    0.9998126030000001    0.4998123940000001    0.0357154940000000    F  F  F            O35
    0.9998126030000001    0.8331457380000000    0.0357154940000000    F  F  F            O36
    0.1664793940000000    0.1664790660000000    0.0016016080000000    F  F  F            O37
    0.1664793940000000    0.4998123940000001    0.0016016080000000    F  F  F            O38
    0.1664793940000000    0.8331457380000000    0.0016016080000000    F  F  F            O39
    0.4998127220000001    0.1664790660000000    0.0016016080000000    F  F  F            O40
    0.4998127220000001    0.4998123940000001    0.0016016080000000    F  F  F            O41
    0.4998127220000001    0.8331457380000000    0.0016016080000000    F  F  F            O42
    0.8331460360000000    0.1664790660000000    0.0016016080000000    F  F  F            O43
    0.8331460360000000    0.4998123940000001    0.0016016080000000    F  F  F            O44
    0.8331460360000000    0.8331457380000000    0.0016016080000000    F  F  F            O45
    0.1664793940000000    0.1664790660000000    0.0698377640000000    T  T  T            O46
    0.1664793940000000    0.4998123940000001    0.0698377640000000    T  T  T            O47
    0.1664793940000000    0.8331457380000000    0.0698377640000000    T  T  T            O48
    0.4998127220000001    0.1664790660000000    0.0698377640000000    T  T  T            O49
    0.4998127220000001    0.4998123940000001    0.0698377640000000    T  T  T            O50
    0.4998127220000001    0.8331457380000000    0.0698377640000000    T  T  T            O51
    0.8331460360000000    0.1664790660000000    0.0698377640000000    T  T  T            O52
    0.8331460360000000    0.4998123940000001    0.0698377640000000    T  T  T            O53
    0.8331460360000000    0.8331457380000000    0.0698377640000000    T  T  T            O54
    1.1745822998877635    1.1732334212311806    0.4274933896638813    T  T  T             C1
    1.1727372572313923    1.1741750145379755    0.4037245341590931    T  T  T             C2
    1.1085451739726364    1.2389229895289668    0.4396194711267304    T  T  T             C3
    1.2424428288587654    1.1066380843770756    0.4389430136020594    T  T  T             C4
    1.2392514866263142    1.1089507188355794    0.3916024991523032    T  T  T             C5
    1.1044350844984470    1.2403016984648418    0.3922708321388291    T  T  T             C6
    1.1101523566135316    1.2381960212798790    0.4618493567895450    T  T  T             C7
    1.2445593695488664    1.1054632431589273    0.4611985914177472    T  T  T             C8
    1.2376586706222601    1.1096458771959175    0.3693730897389448    T  T  T             C9
    1.1024141995018240    1.2415270729005576    0.3700144642424045    T  T  T            C10
    1.1782512232512112    1.1714199931557627    0.4729346188785716    T  T  T            C11
    1.1691787551881352    1.1760113661431710    0.3582830698726586    T  T  T            C12
    1.1770571867724811    1.1736569862925625    0.4966683588037072    T  T  T            C13
    1.1704888167930234    1.1738207516161552    0.3345494001978614    T  T  T            C14
    1.2467921616277431    1.1050564697423744    0.5056219433212567    T  T  T             O1
    1.1208061077998819    1.2298122765128261    0.5075888651294254    T  T  T             O2
    1.1005736180218244    1.2422020153304512    0.3255850409724635    T  T  T             O3
    1.2269895592931461    1.1178803467362191    0.3236367451589127    T  T  T             O4
    1.0545449163369380    1.2920057721181470    0.4316568169691008    T  T  T             H1
    1.2951027059086793    1.0542176048263339    0.4304397722696938    T  T  T             H2
    1.2936737753172258    1.0563139155075336    0.3995681487833730    T  T  T             H3
    1.0513123304748477    1.2922682286632596    0.4007708012177968    T  T  T             H4
    1.0587584373569805    1.2893107326148736    0.4710351651428815    T  T  T             H5
    1.2978400920715141    1.0532107177992618    0.4696004300581369    T  T  T             H6
    1.2893927623995898    1.0588581892581679    0.3601913638373123    T  T  T             H7
    1.0488309932331747    1.2934515177607435    0.3616078043164968    T  T  T             H8
    1.2390726933335603    1.1134241071256663    0.5211240880596895    T  T  T             H9
    1.1084030588731273    1.2338730234421962    0.3100842299989238    T  T  T            H10
