Generated by VASPKIT code
 1.000000
   12.7800006865999993    0.0000000000000000    0.0000000000000000
    0.0000000000000000   12.7800006865999993    0.0000000000000000
    0.0000000000000000    0.0000000000000000   62.4378814697000024
   C    O    H 
    14     4    10
Selective Dynamics
Direct
    1.1745822998877635    1.1732334212311806    0.4274933896638813    T  T  T             C1
    1.1727372572313923    1.1741750145379755    0.4037245341590931    T  T  T             C2
    1.1085451739726364    1.2389229895289668    0.4396194711267304    T  T  T             C3
    1.2424428288587654    1.1066380843770756    0.4389430136020594    T  T  T             C4
    1.2392514866263142    1.1089507188355794    0.3916024991523032    T  T  T             C5
    1.1044350844984470    1.2403016984648418    0.3922708321388291    T  T  T             C6
    1.1101523566135316    1.2381960212798790    0.4618493567895450    T  T  T             C7
    1.2445593695488664    1.1054632431589273    0.4611985914177472    T  T  T             C8
    1.2376586706222601    1.1096458771959175    0.3693730897389448    T  T  T             C9
    1.1024141995018240    1.2415270729005576    0.3700144642424045    T  T  T            C10
    1.1782512232512112    1.1714199931557627    0.4729346188785716    T  T  T            C11
    1.1691787551881352    1.1760113661431710    0.3582830698726586    T  T  T            C12
    1.1770571867724811    1.1736569862925625    0.4966683588037072    T  T  T            C13
    1.1704888167930234    1.1738207516161552    0.3345494001978614    T  T  T            C14
    1.2467921616277431    1.1050564697423744    0.5056219433212567    T  T  T             O1
    1.1208061077998819    1.2298122765128261    0.5075888651294254    T  T  T             O2
    1.1005736180218244    1.2422020153304512    0.3255850409724635    T  T  T             O3
    1.2269895592931461    1.1178803467362191    0.3236367451589127    T  T  T             O4
    1.0545449163369380    1.2920057721181470    0.4316568169691008    T  T  T             H1
    1.2951027059086793    1.0542176048263339    0.4304397722696938    T  T  T             H2
    1.2936737753172258    1.0563139155075336    0.3995681487833730    T  T  T             H3
    1.0513123304748477    1.2922682286632596    0.4007708012177968    T  T  T             H4
    1.0587584373569805    1.2893107326148736    0.4710351651428815    T  T  T             H5
    1.2978400920715141    1.0532107177992618    0.4696004300581369    T  T  T             H6
    1.2893927623995898    1.0588581892581679    0.3601913638373123    T  T  T             H7
    1.0488309932331747    1.2934515177607435    0.3616078043164968    T  T  T             H8
    1.2390726933335603    1.1134241071256663    0.5211240880596895    T  T  T             H9
    1.1084030588731273    1.2338730234421962    0.3100842299989238    T  T  T            H10
