Generated by VASPKIT code               
   1.00000000000000     
     4.2599999999999998    0.0000000000000000    0.0000000000000000
     0.0000000000000003    4.2599999999999998    0.0000000000000000
     0.0000000000000005    0.0000000000000005   24.2700009628922331
  Co              O             
     6     6
Selective dynamics
Direct
  0.9994381357854749  0.9994384623482446  0.4997940041880682   F   F   F
  0.9994381357854749  0.9994384623482446  0.6733927708662925   T   T   T
  0.4994379097544339  0.9994384623482446  0.5875566309949036   F   F   F
  0.9994381357854749  0.4994375831916642  0.5875566309949036   F   F   F
  0.4994379097544339  0.4994375831916642  0.4997940041880682   F   F   F
  0.4994379097544339  0.4994375831916642  0.6733927708662925   T   T   T
  0.9994378921247886  0.9994388395046059  0.5875566737635225   F   F   F
  0.4994381534151202  0.9994388395046059  0.4997939614194493   F   F   F
  0.4994381534151202  0.9994388395046059  0.6754088931443223   T   T   T
  0.9994378921247886  0.4994372060353029  0.4997939614194493   F   F   F
  0.9994378921247886  0.4994372060353029  0.6754088931443223   T   T   T
  0.4994381534151202  0.4994372060353029  0.5875566737635225   F   F   F
 
