Generated by VASPKIT code
 1.000000
   12.7800006865999993    0.0000000000000000    0.0000000000000000
    0.0000000000000000   12.7800006865999993    0.0000000000000000
    0.0000000000000000    0.0000000000000000   55.1311798095999990
 C    O    H 
 14     4    10
Selective Dynamics
Direct
    0.5008734472691935    0.4995245428033216    0.4404307289445902    T  T  T             C1
    0.4990283769457838    0.5004661702957690    0.4135117149651074    T  T  T             C2
    0.4348362833678723    0.5652141323884177    0.4541639195386388    T  T  T             C3
    0.5687340070036958    0.4329292412168062    0.4533978013429849    T  T  T             C4
    0.5655426143739000    0.4352418389016396    0.3997831134257621    T  T  T             C5
    0.4307262679392290    0.5665928490592606    0.4005400172348972    T  T  T             C6
    0.4364434820295702    0.5644871371223109    0.4793399996587002    T  T  T             C7
    0.5708505170621311    0.4317543586508183    0.4786029757070936    T  T  T             C8
    0.5639498132075165    0.4359369875340897    0.3746075774623849    T  T  T             C9
    0.4287053760290211    0.5678182011061051    0.3753339540815376    T  T  T            C10
    0.5045423829093271    0.4977111626190545    0.4918944199049268    T  T  T            C11
    0.4954699264327346    0.5023024769263787    0.3620477519264288    T  T  T            C12
    0.5033483297653394    0.4999480952062315    0.5187736560307962    T  T  T            C13
    0.4967799420118070    0.5001118667154298    0.3351685883547840    T  T  T            C14
    0.5730833025446795    0.4313476294081939    0.5289138888705558    T  T  T             O1
    0.4470972373257463    0.5561034130030827    0.5311415030885742    T  T  T             O2
    0.4268647657992687    0.5684931619462125    0.3250161664052987    T  T  T             O3
    0.5532807214489405    0.4441714941339479    0.3228096473280702    T  T  T             O4
    0.3808360515272276    0.6182969151390720    0.4451459373057712    T  T  T             H1
    0.6213938633294972    0.3805087432506023    0.4437676065633051    T  T  T             H2
    0.6199649119195692    0.3826050655166950    0.4088044694300716    T  T  T             H3
    0.3776035008401750    0.6185593564395263    0.4101665117491246    T  T  T             H4
    0.3850495880770699    0.6156018448613283    0.4897432234239230    T  T  T             H5
    0.6241312653733547    0.3795018575456984    0.4881183352878559    T  T  T             H6
    0.6156839262340703    0.3851493533299260    0.3642089608904215    T  T  T             H7
    0.3751221238216862    0.6197426897092856    0.3658131347953775    T  T  T             H8
    0.5653638193913304    0.4397152345924508    0.5464705782674233    T  T  T             H9
    0.4346941863489024    0.5601641326597266    0.3074609825085908    T  T  T            H10
