Generated by VASPKIT code
 1.000000
   12.7800006865999993    0.0000000000000000    0.0000000000000000
    0.0000000000000000   12.7800006865999993    0.0000000000000000
    0.0000000000000000    0.0000000000000000   44.9309647111174968
   Co   O    
    54    54 
Selective Dynamics
Direct
    0.3331460360000000    0.3331461550000000    0.0000000000000000    F  F  F            Co1
    0.3331460360000000    0.6664794680000000    0.0000000000000000    F  F  F            Co2
    0.3331460360000000    0.9998128410000000    0.0000000000000000    F  F  F            Co3
    0.6664793490000001    0.3331461550000000    0.0000000000000000    F  F  F            Co4
    0.6664793490000001    0.6664794680000000    0.0000000000000000    F  F  F            Co5
    0.6664793490000001    0.9998128410000000    0.0000000000000000    F  F  F            Co6
    0.9998127220000000    0.3331461550000000    0.0000000000000000    F  F  F            Co7
    0.9998127220000000    0.6664794680000000    0.0000000000000000    F  F  F            Co8
    0.9998127220000000    0.9998128410000000    0.0000000000000000    F  F  F            Co9
    0.3331460360000000    0.3331461550000000    0.0938480561533037    T  T  T           Co10
    0.3331460360000000    0.6664794680000000    0.0938480561533037    T  T  T           Co11
    0.3331460360000000    0.9998128410000000    0.0938480561533037    T  T  T           Co12
    0.6664793490000001    0.3331461550000000    0.0938480561533037    T  T  T           Co13
    0.6664793490000001    0.6664794680000000    0.0938480561533037    T  T  T           Co14
    0.6664793490000001    0.9998128410000000    0.0938480561533037    T  T  T           Co15
    0.9998127220000000    0.3331461550000000    0.0938480561533037    T  T  T           Co16
    0.9998127220000000    0.6664794680000000    0.0938480561533037    T  T  T           Co17
    0.9998127220000000    0.9998128410000000    0.0938480561533037    T  T  T           Co18
    0.1664793040000000    0.3331461550000000    0.0474060590932105    F  F  F           Co19
    0.1664793040000000    0.6664794680000000    0.0474060590932105    F  F  F           Co20
    0.1664793040000000    0.9998128410000000    0.0474060590932105    F  F  F           Co21
    0.4998126330000000    0.3331461550000000    0.0474060590932105    F  F  F           Co22
    0.4998126330000000    0.6664794680000000    0.0474060590932105    F  F  F           Co23
    0.4998126330000000    0.9998128410000000    0.0474060590932105    F  F  F           Co24
    0.8331459760000000    0.3331461550000000    0.0474060590932105    F  F  F           Co25
    0.8331459760000000    0.6664794680000000    0.0474060590932105    F  F  F           Co26
    0.8331459760000000    0.9998128410000000    0.0474060590932105    F  F  F           Co27
    0.3331460360000000    0.1664791850000000    0.0474060590932105    F  F  F           Co28
    0.3331460360000000    0.4998125140000001    0.0474060590932105    F  F  F           Co29
    0.3331460360000000    0.8331458570000000    0.0474060590932105    F  F  F           Co30
    0.6664793490000001    0.1664791850000000    0.0474060590932105    F  F  F           Co31
    0.6664793490000001    0.4998125140000001    0.0474060590932105    F  F  F           Co32
    0.6664793490000001    0.8331458570000000    0.0474060590932105    F  F  F           Co33
    0.9998127220000000    0.1664791850000000    0.0474060590932105    F  F  F           Co34
    0.9998127220000000    0.4998125140000001    0.0474060590932105    F  F  F           Co35
    0.9998127220000000    0.8331458570000000    0.0474060590932105    F  F  F           Co36
    0.1664793040000000    0.1664791850000000    0.0000000000000000    F  F  F           Co37
    0.1664793040000000    0.4998125140000001    0.0000000000000000    F  F  F           Co38
    0.1664793040000000    0.8331458570000000    0.0000000000000000    F  F  F           Co39
    0.4998126330000000    0.1664791850000000    0.0000000000000000    F  F  F           Co40
    0.4998126330000000    0.4998125140000001    0.0000000000000000    F  F  F           Co41
    0.4998126330000000    0.8331458570000000    0.0000000000000000    F  F  F           Co42
    0.8331459760000000    0.1664791850000000    0.0000000000000000    F  F  F           Co43
    0.8331459760000000    0.4998125140000001    0.0000000000000000    F  F  F           Co44
    0.8331459760000000    0.8331458570000000    0.0000000000000000    F  F  F           Co45
    0.1664793040000000    0.1664791850000000    0.0938480561533037    T  T  T           Co46
    0.1664793040000000    0.4998125140000001    0.0938480561533037    T  T  T           Co47
    0.1664793040000000    0.8331458570000000    0.0938480561533037    T  T  T           Co48
    0.4998126330000000    0.1664791850000000    0.0938480561533037    T  T  T           Co49
    0.4998126330000000    0.4998125140000001    0.0938480561533037    T  T  T           Co50
    0.4998126330000000    0.8331458570000000    0.0938480561533037    T  T  T           Co51
    0.8331459760000000    0.1664791850000000    0.0938480561533037    T  T  T           Co52
    0.8331459760000000    0.4998125140000001    0.0938480561533037    T  T  T           Co53
    0.8331459760000000    0.8331458570000000    0.0938480561533037    T  T  T           Co54
    0.3331459460000001    0.3331462740000001    0.0474060811795655    F  F  F             O1
    0.3331459460000001    0.6664795880000002    0.0474060811795655    F  F  F             O2
    0.3331459460000001    0.9998129610000002    0.0474060811795655    F  F  F             O3
    0.6664792900000003    0.3331462740000001    0.0474060811795655    F  F  F             O4
    0.6664792900000003    0.6664795880000002    0.0474060811795655    F  F  F             O5
    0.6664792900000003    0.9998129610000002    0.0474060811795655    F  F  F             O6
    0.9998126030000001    0.3331462740000001    0.0474060811795655    F  F  F             O7
    0.9998126030000001    0.6664795880000002    0.0474060811795655    F  F  F             O8
    0.9998126030000001    0.9998129610000002    0.0474060811795655    F  F  F             O9
    0.1664793940000000    0.3331462740000001    0.0000000000000000    F  F  F            O10
    0.1664793940000000    0.6664795880000002    0.0000000000000000    F  F  F            O11
    0.1664793940000000    0.9998129610000002    0.0000000000000000    F  F  F            O12
    0.4998127220000002    0.3331462740000001    0.0000000000000000    F  F  F            O13
    0.4998127220000002    0.6664795880000002    0.0000000000000000    F  F  F            O14
    0.4998127220000002    0.9998129610000002    0.0000000000000000    F  F  F            O15
    0.8331460360000000    0.3331462740000001    0.0000000000000000    F  F  F            O16
    0.8331460360000000    0.6664795880000002    0.0000000000000000    F  F  F            O17
    0.8331460360000000    0.9998129610000002    0.0000000000000000    F  F  F            O18
    0.1664793940000000    0.3331462740000001    0.0948340033101749    T  T  T            O19
    0.1664793940000000    0.6664795880000002    0.0948340033101749    T  T  T            O20
    0.1664793940000000    0.9998129610000002    0.0948340033101749    T  T  T            O21
    0.4998127220000002    0.3331462740000001    0.0948340033101749    T  T  T            O22
    0.4998127220000002    0.6664795880000002    0.0948340033101749    T  T  T            O23
    0.4998127220000002    0.9998129610000002    0.0948340033101749    T  T  T            O24
    0.8331460360000000    0.3331462740000001    0.0948340033101749    T  T  T            O25
    0.8331460360000000    0.6664795880000002    0.0948340033101749    T  T  T            O26
    0.8331460360000000    0.9998129610000002    0.0948340033101749    T  T  T            O27
    0.3331459460000001    0.1664790660000000    0.0000000000000000    F  F  F            O28
    0.3331459460000001    0.4998123940000002    0.0000000000000000    F  F  F            O29
    0.3331459460000001    0.8331457380000000    0.0000000000000000    F  F  F            O30
    0.6664792900000003    0.1664790660000000    0.0000000000000000    F  F  F            O31
    0.6664792900000003    0.4998123940000002    0.0000000000000000    F  F  F            O32
    0.6664792900000003    0.8331457380000000    0.0000000000000000    F  F  F            O33
    0.9998126030000001    0.1664790660000000    0.0000000000000000    F  F  F            O34
    0.9998126030000001    0.4998123940000002    0.0000000000000000    F  F  F            O35
    0.9998126030000001    0.8331457380000000    0.0000000000000000    F  F  F            O36
    0.3331459460000001    0.1664790660000000    0.0948340033101749    T  T  T            O37
    0.3331459460000001    0.4998123940000002    0.0948340033101749    T  T  T            O38
    0.3331459460000001    0.8331457380000000    0.0948340033101749    T  T  T            O39
    0.6664792900000003    0.1664790660000000    0.0948340033101749    T  T  T            O40
    0.6664792900000003    0.4998123940000002    0.0948340033101749    T  T  T            O41
    0.6664792900000003    0.8331457380000000    0.0948340033101749    T  T  T            O42
    0.9998126030000001    0.1664790660000000    0.0948340033101749    T  T  T            O43
    0.9998126030000001    0.4998123940000002    0.0948340033101749    T  T  T            O44
    0.9998126030000001    0.8331457380000000    0.0948340033101749    T  T  T            O45
    0.1664793940000000    0.1664790660000000    0.0474060811795655    F  F  F            O46
    0.1664793940000000    0.4998123940000002    0.0474060811795655    F  F  F            O47
    0.1664793940000000    0.8331457380000000    0.0474060811795655    F  F  F            O48
    0.4998127220000002    0.1664790660000000    0.0474060811795655    F  F  F            O49
    0.4998127220000002    0.4998123940000002    0.0474060811795655    F  F  F            O50
    0.4998127220000002    0.8331457380000000    0.0474060811795655    F  F  F            O51
    0.8331460360000000    0.1664790660000000    0.0474060811795655    F  F  F            O52
    0.8331460360000000    0.4998123940000002    0.0474060811795655    F  F  F            O53
    0.8331460360000000    0.8331457380000000    0.0474060811795655    F  F  F            O54
