Generated by VASPKIT code
 1.000000
   12.7800006865999993    0.0000000000000000    0.0000000000000000
    0.0000000000000000   12.7800006865999993    0.0000000000000000
    0.0000000000000000    0.0000000000000000   44.9309647111174968
 C    O    H 
    14     4    10
Selective Dynamics
Direct
    0.4851609285677583    0.4638298778388901    0.4073933606546469    T  T  T             C1
    0.5659690097195451    0.5472472824655698    0.4076611937643335    T  T  T             C2
    0.3965743965949713    0.4686339986760117    0.4260778693314007    T  T  T             C3
    0.4935913229533285    0.3762909482976937    0.3884512345402344    T  T  T             C4
    0.6548788853392155    0.5420918214235044    0.3891090214404273    T  T  T             C5
    0.5572405017868434    0.6351125434286332    0.4264700265021468    T  T  T             C6
    0.3209146943519983    0.3907013742882270    0.4258710854339364    T  T  T             C7
    0.4182030102702399    0.2979094383850693    0.3881170552031884    T  T  T             C8
    0.7305471082737826    0.6200126053697232    0.3893067469968987    T  T  T             C9
    0.6326991378400920    0.7134291522293809    0.4268185611953341    T  T  T            C10
    0.3307723599071651    0.3042526506365419    0.4068775693701929    T  T  T            C11
    0.7204365331002124    0.7067472148228262    0.4081835061640535    T  T  T            C12
    0.2479366308040554    0.2231055676838594    0.4075138343643636    T  T  T            C13
    0.8033540387108715    0.7878120786346444    0.4075604169386229    T  T  T            C14
    0.2663153199189168    0.1428641125224601    0.3880013666121818    T  T  T             O1
    0.1704346886454644    0.2251546833516400    0.4234864493441288    T  T  T             O2
    0.7848851077260407    0.8682181380652879    0.4270105446093418    T  T  T             O3
    0.8810053696180163    0.7855592409771432    0.3916489401965376    T  T  T             O4
    0.3858985786601750    0.5343260409815471    0.4411765435833703    T  T  T             H1
    0.5602030466583443    0.3684303889941489    0.3735409381709639    T  T  T             H2
    0.6658428575712422    0.4760910423709391    0.3741372084752507    T  T  T             H3
    0.4903127378848637    0.6433117172289188    0.4412511914352886    T  T  T             H4
    0.2528401228235495    0.3953087446105741    0.4404099675656718    T  T  T             H5
    0.4268528954578558    0.2312089666975652    0.3732545432519467    T  T  T             H6
    0.7988481974083825    0.6151506102248376    0.3748608964754787    T  T  T             H7
    0.6238520041751983    0.7803601805521581    0.4415877744598738    T  T  T             H8
    0.2073025592199542    0.0947683495934797    0.3903814178905763    T  T  T             H9
    0.8439710135826247    0.9162315711950627    0.4246414657194362    T  T  T            H10
