SYSTEM = CoO Bulk Cubic Fm3m
ISTART = 0 # Start a new calculation
ICHARG = 2  # Charge density from atomic positions
PREC   = Accurate  # High precision calculations
LASPH = .TRUE.
ISMEAR = 0  # Gaussian smearing (for insulators)
SIGMA  = 0.03  # Small smearing for electronic convergence
ENCUT  = 600  # Plane-wave energy cutoff (eV)
EDIFF  = 1E-6  # Energy convergence criteria (eV)
NELM   = 900  # Maximum number of electronic SCF steps
LREAL=Auto
LMAXMIX=4
ALGO   = Normal    # Fast algorithm (default: RMM-DIIS)
NELMIN = 10       # Minimum number of electronic iterations
ISIF    = 2      # Relax both ions and cell shape/volume
NSW     = 0    # Maximum number of ionic steps
IBRION  = -1      # Conjugate gradient algorithm for relaxation
EDIFFG  = -0.02  # Force convergence criterion (eV/Å)
NCORE=8
KPAR=2
