 Generated by VASPKIT code
   1.000
   12.7800006865999993    0.0000000000000000    0.0000000000000000
    0.0000000000000000   12.7800006865999993    0.0000000000000000
    0.0000000000000000    0.0000000000000000   47.5378840412763992
 C    O    H 
 14    4   10
Selective Dynamics
Direct
    1.1745822998877635    1.1732334212311806    0.5614844272357105    T  T  T             C1
    1.1727372572313921    1.1741750145379755    0.5302656001337344    T  T  T             C2
    1.1085451739726364    1.2389229895289668    0.5774112370283361    T  T  T             C3
    1.2424428288587652    1.1066380843770756    0.5765227545980279    T  T  T             C4
    1.2392514866263142    1.1089507188355794    0.5143441050947815    T  T  T             C5
    1.1044350844984470    1.2403016984648418    0.5152219164790400    T  T  T             C6
    1.1101523566135316    1.2381960212798790    0.6066087285467771    T  T  T             C7
    1.2445593695488664    1.1054632431589273    0.6057539910680618    T  T  T             C8
    1.2376586706222601    1.1096458771959175    0.4851472390986517    T  T  T             C9
    1.1024141995018240    1.2415270729005576    0.4859896422899661    T  T  T            C10
    1.1782512232512112    1.1714199931557627    0.6211684906046386    T  T  T            C11
    1.1691787551881352    1.1760113661431710    0.4705812280135439    T  T  T            C12
    1.1770571867724811    1.1736569862925625    0.6523411957042515    T  T  T            C13
    1.1704888167930234    1.1738207516161552    0.4394086151831263    T  T  T            C14
    1.2467921616277431    1.1050564697423744    0.6641011395913267    T  T  T             O1
    1.1208061077998819    1.2298122765128261    0.6666845619121849    T  T  T             O2
    1.1005736180218244    1.2422020153304512    0.4276345194265460    T  T  T             O3
    1.2269895592931459    1.1178803467362191    0.4250755611235476    T  T  T             O4
    1.0545449163369380    1.2920057721181470    0.5669528149402471    T  T  T             H1
    1.2951027059086793    1.0542176048263336    0.5653543068404983    T  T  T             H2
    1.2936737753172258    1.0563139155075336    0.5248064615400546    T  T  T             H3
    1.0513123304748475    1.2922682286632596    0.5263860663471303    T  T  T             H4
    1.0587584373569805    1.2893107326148734    0.6186736831558421    T  T  T             H5
    1.2978400920715141    1.0532107177992618    0.6167892530645929    T  T  T             H6
    1.2893927623995896    1.0588581892581679    0.4730876465211692    T  T  T             H7
    1.0488309932331747    1.2934515177607435    0.4749480478522720    T  T  T             H8
    1.2390726933335603    1.1134241071256661    0.6844621862644173    T  T  T             H9
    1.1084030588731273    1.2338730234421962    0.4072752245658462    T  T  T            H10
