Generated by VASPKIT code               
   1.00000000000000     
    12.7800006865999993    0.0000000000000000    0.0000000000000000
     0.0000000000000000   12.7800006865999993    0.0000000000000000
     0.0000000000000000    0.0000000000000000   55.1311798095999990
  Co              O             
    54    54
Selective dynamics
Direct
  0.3331460360000023  0.3331461550000014  0.0404489969999986   F   F   F
  0.3331460360000023  0.6664794679999986  0.0404489969999986   F   F   F
  0.3331460360000023  0.9998128410000007  0.0404489969999986   F   F   F
  0.6664793489999994  0.3331461550000014  0.0404489969999986   F   F   F
  0.6664793489999994  0.6664794679999986  0.0404489969999986   F   F   F
  0.6664793489999994  0.9998128410000007  0.0404489969999986   F   F   F
  0.9998127220000015  0.3331461550000014  0.0404489969999986   F   F   F
  0.9998127220000015  0.6664794679999986  0.0404489969999986   F   F   F
  0.9998127220000015  0.9998128410000007  0.0404489969999986   F   F   F
  0.1664793039999992  0.3331461550000014  0.0018138559999983   F   F   F
  0.1664793039999992  0.6664794679999986  0.0018138559999983   F   F   F
  0.1664793039999992  0.9998128410000007  0.0018138559999983   F   F   F
  0.4998126329999977  0.3331461550000014  0.0018138559999983   F   F   F
  0.4998126329999977  0.6664794679999986  0.0018138559999983   F   F   F
  0.4998126329999977  0.9998128410000007  0.0018138559999983   F   F   F
  0.8331459759999973  0.3331461550000014  0.0018138559999983   F   F   F
  0.8331459759999973  0.6664794679999986  0.0018138559999983   F   F   F
  0.8331459759999973  0.9998128410000007  0.0018138559999983   F   F   F
  0.1664793039999992  0.3331461550000014  0.0782951564269967   T   T   T
  0.1664793039999992  0.6664794679999986  0.0782951564269967   T   T   T
  0.1664793039999992  0.9998128410000007  0.0782951564269967   T   T   T
  0.4998126329999977  0.3331461550000014  0.0782951564269967   T   T   T
  0.4998126329999977  0.6664794679999986  0.0782951564269967   T   T   T
  0.4998126329999977  0.9998128410000007  0.0782951564269967   T   T   T
  0.8331459759999973  0.3331461550000014  0.0782951564269967   T   T   T
  0.8331459759999973  0.6664794679999986  0.0782951564269967   T   T   T
  0.8331459759999973  0.9998128410000007  0.0782951564269967   T   T   T
  0.3331460360000023  0.1664791850000000  0.0018138559999983   F   F   F
  0.3331460360000023  0.4998125139999985  0.0018138559999983   F   F   F
  0.3331460360000023  0.8331458569999981  0.0018138559999983   F   F   F
  0.6664793489999994  0.1664791850000000  0.0018138559999983   F   F   F
  0.6664793489999994  0.4998125139999985  0.0018138559999983   F   F   F
  0.6664793489999994  0.8331458569999981  0.0018138559999983   F   F   F
  0.9998127220000015  0.1664791850000000  0.0018138559999983   F   F   F
  0.9998127220000015  0.4998125139999985  0.0018138559999983   F   F   F
  0.9998127220000015  0.8331458569999981  0.0018138559999983   F   F   F
  0.3331460360000023  0.1664791850000000  0.0782951564269967   T   T   T
  0.3331460360000023  0.4998125139999985  0.0782951564269967   T   T   T
  0.3331460360000023  0.8331458569999981  0.0782951564269967   T   T   T
  0.6664793489999994  0.1664791850000000  0.0782951564269967   T   T   T
  0.6664793489999994  0.4998125139999985  0.0782951564269967   T   T   T
  0.6664793489999994  0.8331458569999981  0.0782951564269967   T   T   T
  0.9998127220000015  0.1664791850000000  0.0782951564269967   T   T   T
  0.9998127220000015  0.4998125139999985  0.0782951564269967   T   T   T
  0.9998127220000015  0.8331458569999981  0.0782951564269967   T   T   T
  0.1664793039999992  0.1664791850000000  0.0404489969999986   F   F   F
  0.1664793039999992  0.4998125139999985  0.0404489969999986   F   F   F
  0.1664793039999992  0.8331458569999981  0.0404489969999986   F   F   F
  0.4998126329999977  0.1664791850000000  0.0404489969999986   F   F   F
  0.4998126329999977  0.4998125139999985  0.0404489969999986   F   F   F
  0.4998126329999977  0.8331458569999981  0.0404489969999986   F   F   F
  0.8331459759999973  0.1664791850000000  0.0404489969999986   F   F   F
  0.8331459759999973  0.4998125139999985  0.0404489969999986   F   F   F
  0.8331459759999973  0.8331458569999981  0.0404489969999986   F   F   F
  0.3331459460000019  0.3331462740000006  0.0018138739999998   F   F   F
  0.3331459460000019  0.6664795880000014  0.0018138739999998   F   F   F
  0.3331459460000019  0.9998129610000035  0.0018138739999998   F   F   F
  0.6664792899999981  0.3331462740000006  0.0018138739999998   F   F   F
  0.6664792899999981  0.6664795880000014  0.0018138739999998   F   F   F
  0.6664792899999981  0.9998129610000035  0.0018138739999998   F   F   F
  0.9998126030000023  0.3331462740000006  0.0018138739999998   F   F   F
  0.9998126030000023  0.6664795880000014  0.0018138739999998   F   F   F
  0.9998126030000023  0.9998129610000035  0.0018138739999998   F   F   F
  0.3331459460000019  0.3331462740000006  0.0790965607153234   T   T   T
  0.3331459460000019  0.6664795880000014  0.0790965607153234   T   T   T
  0.3331459460000019  0.9998129610000035  0.0790965607153234   T   T   T
  0.6664792899999981  0.3331462740000006  0.0790965607153234   T   T   T
  0.6664792899999981  0.6664795880000014  0.0790965607153234   T   T   T
  0.6664792899999981  0.9998129610000035  0.0790965607153234   T   T   T
  0.9998126030000023  0.3331462740000006  0.0790965607153234   T   T   T
  0.9998126030000023  0.6664795880000014  0.0790965607153234   T   T   T
  0.9998126030000023  0.9998129610000035  0.0790965607153234   T   T   T
  0.1664793939999996  0.3331462740000006  0.0404489789999971   F   F   F
  0.1664793939999996  0.6664795880000014  0.0404489789999971   F   F   F
  0.1664793939999996  0.9998129610000035  0.0404489789999971   F   F   F
  0.4998127220000015  0.3331462740000006  0.0404489789999971   F   F   F
  0.4998127220000015  0.6664795880000014  0.0404489789999971   F   F   F
  0.4998127220000015  0.9998129610000035  0.0404489789999971   F   F   F
  0.8331460360000023  0.3331462740000006  0.0404489789999971   F   F   F
  0.8331460360000023  0.6664795880000014  0.0404489789999971   F   F   F
  0.8331460360000023  0.9998129610000035  0.0404489789999971   F   F   F
  0.3331459460000019  0.1664790660000008  0.0404489789999971   F   F   F
  0.3331459460000019  0.4998123940000028  0.0404489789999971   F   F   F
  0.3331459460000019  0.8331457379999989  0.0404489789999971   F   F   F
  0.6664792899999981  0.1664790660000008  0.0404489789999971   F   F   F
  0.6664792899999981  0.4998123940000028  0.0404489789999971   F   F   F
  0.6664792899999981  0.8331457379999989  0.0404489789999971   F   F   F
  0.9998126030000023  0.1664790660000008  0.0404489789999971   F   F   F
  0.9998126030000023  0.4998123940000028  0.0404489789999971   F   F   F
  0.9998126030000023  0.8331457379999989  0.0404489789999971   F   F   F
  0.1664793939999996  0.1664790660000008  0.0018138739999998   F   F   F
  0.1664793939999996  0.4998123940000028  0.0018138739999998   F   F   F
  0.1664793939999996  0.8331457379999989  0.0018138739999998   F   F   F
  0.4998127220000015  0.1664790660000008  0.0018138739999998   F   F   F
  0.4998127220000015  0.4998123940000028  0.0018138739999998   F   F   F
  0.4998127220000015  0.8331457379999989  0.0018138739999998   F   F   F
  0.8331460360000023  0.1664790660000008  0.0018138739999998   F   F   F
  0.8331460360000023  0.4998123940000028  0.0018138739999998   F   F   F
  0.8331460360000023  0.8331457379999989  0.0018138739999998   F   F   F
  0.1664793939999996  0.1664790660000008  0.0790965607153234   T   T   T
  0.1664793939999996  0.4998123940000028  0.0790965607153234   T   T   T
  0.1664793939999996  0.8331457379999989  0.0790965607153234   T   T   T
  0.4998127220000015  0.1664790660000008  0.0790965607153234   T   T   T
  0.4998127220000015  0.4998123940000028  0.0790965607153234   T   T   T
  0.4998127220000015  0.8331457379999989  0.0790965607153234   T   T   T
  0.8331460360000023  0.1664790660000008  0.0790965607153234   T   T   T
  0.8331460360000023  0.4998123940000028  0.0790965607153234   T   T   T
  0.8331460360000023  0.8331457379999989  0.0790965607153234   T   T   T
 
  0.00000000E+00  0.00000000E+00  0.00000000E+00
  0.00000000E+00  0.00000000E+00  0.00000000E+00
  0.00000000E+00  0.00000000E+00  0.00000000E+00
  0.00000000E+00  0.00000000E+00  0.00000000E+00
  0.00000000E+00  0.00000000E+00  0.00000000E+00
  0.00000000E+00  0.00000000E+00  0.00000000E+00
  0.00000000E+00  0.00000000E+00  0.00000000E+00
  0.00000000E+00  0.00000000E+00  0.00000000E+00
  0.00000000E+00  0.00000000E+00  0.00000000E+00
  0.00000000E+00  0.00000000E+00  0.00000000E+00
  0.00000000E+00  0.00000000E+00  0.00000000E+00
  0.00000000E+00  0.00000000E+00  0.00000000E+00
  0.00000000E+00  0.00000000E+00  0.00000000E+00
  0.00000000E+00  0.00000000E+00  0.00000000E+00
  0.00000000E+00  0.00000000E+00  0.00000000E+00
  0.00000000E+00  0.00000000E+00  0.00000000E+00
  0.00000000E+00  0.00000000E+00  0.00000000E+00
  0.00000000E+00  0.00000000E+00  0.00000000E+00
  0.00000000E+00  0.00000000E+00  0.00000000E+00
  0.00000000E+00  0.00000000E+00  0.00000000E+00
  0.00000000E+00  0.00000000E+00  0.00000000E+00
  0.00000000E+00  0.00000000E+00  0.00000000E+00
  0.00000000E+00  0.00000000E+00  0.00000000E+00
  0.00000000E+00  0.00000000E+00  0.00000000E+00
  0.00000000E+00  0.00000000E+00  0.00000000E+00
  0.00000000E+00  0.00000000E+00  0.00000000E+00
  0.00000000E+00  0.00000000E+00  0.00000000E+00
  0.00000000E+00  0.00000000E+00  0.00000000E+00
  0.00000000E+00  0.00000000E+00  0.00000000E+00
  0.00000000E+00  0.00000000E+00  0.00000000E+00
  0.00000000E+00  0.00000000E+00  0.00000000E+00
  0.00000000E+00  0.00000000E+00  0.00000000E+00
  0.00000000E+00  0.00000000E+00  0.00000000E+00
  0.00000000E+00  0.00000000E+00  0.00000000E+00
  0.00000000E+00  0.00000000E+00  0.00000000E+00
  0.00000000E+00  0.00000000E+00  0.00000000E+00
  0.00000000E+00  0.00000000E+00  0.00000000E+00
  0.00000000E+00  0.00000000E+00  0.00000000E+00
  0.00000000E+00  0.00000000E+00  0.00000000E+00
  0.00000000E+00  0.00000000E+00  0.00000000E+00
  0.00000000E+00  0.00000000E+00  0.00000000E+00
  0.00000000E+00  0.00000000E+00  0.00000000E+00
  0.00000000E+00  0.00000000E+00  0.00000000E+00
  0.00000000E+00  0.00000000E+00  0.00000000E+00
  0.00000000E+00  0.00000000E+00  0.00000000E+00
  0.00000000E+00  0.00000000E+00  0.00000000E+00
  0.00000000E+00  0.00000000E+00  0.00000000E+00
  0.00000000E+00  0.00000000E+00  0.00000000E+00
  0.00000000E+00  0.00000000E+00  0.00000000E+00
  0.00000000E+00  0.00000000E+00  0.00000000E+00
  0.00000000E+00  0.00000000E+00  0.00000000E+00
  0.00000000E+00  0.00000000E+00  0.00000000E+00
  0.00000000E+00  0.00000000E+00  0.00000000E+00
  0.00000000E+00  0.00000000E+00  0.00000000E+00
  0.00000000E+00  0.00000000E+00  0.00000000E+00
  0.00000000E+00  0.00000000E+00  0.00000000E+00
  0.00000000E+00  0.00000000E+00  0.00000000E+00
  0.00000000E+00  0.00000000E+00  0.00000000E+00
  0.00000000E+00  0.00000000E+00  0.00000000E+00
  0.00000000E+00  0.00000000E+00  0.00000000E+00
  0.00000000E+00  0.00000000E+00  0.00000000E+00
  0.00000000E+00  0.00000000E+00  0.00000000E+00
  0.00000000E+00  0.00000000E+00  0.00000000E+00
  0.00000000E+00  0.00000000E+00  0.00000000E+00
  0.00000000E+00  0.00000000E+00  0.00000000E+00
  0.00000000E+00  0.00000000E+00  0.00000000E+00
  0.00000000E+00  0.00000000E+00  0.00000000E+00
  0.00000000E+00  0.00000000E+00  0.00000000E+00
  0.00000000E+00  0.00000000E+00  0.00000000E+00
  0.00000000E+00  0.00000000E+00  0.00000000E+00
  0.00000000E+00  0.00000000E+00  0.00000000E+00
  0.00000000E+00  0.00000000E+00  0.00000000E+00
  0.00000000E+00  0.00000000E+00  0.00000000E+00
  0.00000000E+00  0.00000000E+00  0.00000000E+00
  0.00000000E+00  0.00000000E+00  0.00000000E+00
  0.00000000E+00  0.00000000E+00  0.00000000E+00
  0.00000000E+00  0.00000000E+00  0.00000000E+00
  0.00000000E+00  0.00000000E+00  0.00000000E+00
  0.00000000E+00  0.00000000E+00  0.00000000E+00
  0.00000000E+00  0.00000000E+00  0.00000000E+00
  0.00000000E+00  0.00000000E+00  0.00000000E+00
  0.00000000E+00  0.00000000E+00  0.00000000E+00
  0.00000000E+00  0.00000000E+00  0.00000000E+00
  0.00000000E+00  0.00000000E+00  0.00000000E+00
  0.00000000E+00  0.00000000E+00  0.00000000E+00
  0.00000000E+00  0.00000000E+00  0.00000000E+00
  0.00000000E+00  0.00000000E+00  0.00000000E+00
  0.00000000E+00  0.00000000E+00  0.00000000E+00
  0.00000000E+00  0.00000000E+00  0.00000000E+00
  0.00000000E+00  0.00000000E+00  0.00000000E+00
  0.00000000E+00  0.00000000E+00  0.00000000E+00
  0.00000000E+00  0.00000000E+00  0.00000000E+00
  0.00000000E+00  0.00000000E+00  0.00000000E+00
  0.00000000E+00  0.00000000E+00  0.00000000E+00
  0.00000000E+00  0.00000000E+00  0.00000000E+00
  0.00000000E+00  0.00000000E+00  0.00000000E+00
  0.00000000E+00  0.00000000E+00  0.00000000E+00
  0.00000000E+00  0.00000000E+00  0.00000000E+00
  0.00000000E+00  0.00000000E+00  0.00000000E+00
  0.00000000E+00  0.00000000E+00  0.00000000E+00
  0.00000000E+00  0.00000000E+00  0.00000000E+00
  0.00000000E+00  0.00000000E+00  0.00000000E+00
  0.00000000E+00  0.00000000E+00  0.00000000E+00
  0.00000000E+00  0.00000000E+00  0.00000000E+00
  0.00000000E+00  0.00000000E+00  0.00000000E+00
  0.00000000E+00  0.00000000E+00  0.00000000E+00
  0.00000000E+00  0.00000000E+00  0.00000000E+00
  0.00000000E+00  0.00000000E+00  0.00000000E+00
