Generated by VASPKIT code
 1.000000
   12.7800006865999993    0.0000000000000000    0.0000000000000000
    0.0000000000000000   12.7800006865999993    0.0000000000000000
    0.0000000000000000    0.0000000000000000   55.1311798095999990
   Co   O    C    O    H 
    54    54    14     4    10
Selective Dynamics
Direct
    0.3331460360000023    0.3331461550000014    0.0404489969999986    F  F  F            Co1
    0.3331460360000023    0.6664794679999987    0.0404489969999986    F  F  F            Co2
    0.3331460360000023    0.9998128410000008    0.0404489969999986    F  F  F            Co3
    0.6664793489999995    0.3331461550000014    0.0404489969999986    F  F  F            Co4
    0.6664793489999995    0.6664794679999987    0.0404489969999986    F  F  F            Co5
    0.6664793489999995    0.9998128410000008    0.0404489969999986    F  F  F            Co6
    0.9998127220000016    0.3331461550000014    0.0404489969999986    F  F  F            Co7
    0.9998127220000016    0.6664794679999987    0.0404489969999986    F  F  F            Co8
    0.9998127220000016    0.9998128410000008    0.0404489969999986    F  F  F            Co9
    0.1664793039999992    0.3331461550000014    0.0018138559999983    F  F  F           Co10
    0.1664793039999992    0.6664794679999987    0.0018138559999983    F  F  F           Co11
    0.1664793039999992    0.9998128410000008    0.0018138559999983    F  F  F           Co12
    0.4998126329999977    0.3331461550000014    0.0018138559999983    F  F  F           Co13
    0.4998126329999977    0.6664794679999987    0.0018138559999983    F  F  F           Co14
    0.4998126329999977    0.9998128410000008    0.0018138559999983    F  F  F           Co15
    0.8331459759999974    0.3331461550000014    0.0018138559999983    F  F  F           Co16
    0.8331459759999974    0.6664794679999987    0.0018138559999983    F  F  F           Co17
    0.8331459759999974    0.9998128410000008    0.0018138559999983    F  F  F           Co18
    0.1664793039999992    0.3331461550000014    0.0782951564269967    T  T  T           Co19
    0.1664793039999992    0.6664794679999987    0.0782951564269967    T  T  T           Co20
    0.1664793039999992    0.9998128410000008    0.0782951564269967    T  T  T           Co21
    0.4998126329999977    0.3331461550000014    0.0782951564269967    T  T  T           Co22
    0.4998126329999977    0.6664794679999987    0.0782951564269967    T  T  T           Co23
    0.4998126329999977    0.9998128410000008    0.0782951564269967    T  T  T           Co24
    0.8331459759999974    0.3331461550000014    0.0782951564269967    T  T  T           Co25
    0.8331459759999974    0.6664794679999987    0.0782951564269967    T  T  T           Co26
    0.8331459759999974    0.9998128410000008    0.0782951564269967    T  T  T           Co27
    0.3331460360000023    0.1664791850000000    0.0018138559999983    F  F  F           Co28
    0.3331460360000023    0.4998125139999985    0.0018138559999983    F  F  F           Co29
    0.3331460360000023    0.8331458569999982    0.0018138559999983    F  F  F           Co30
    0.6664793489999995    0.1664791850000000    0.0018138559999983    F  F  F           Co31
    0.6664793489999995    0.4998125139999985    0.0018138559999983    F  F  F           Co32
    0.6664793489999995    0.8331458569999982    0.0018138559999983    F  F  F           Co33
    0.9998127220000016    0.1664791850000000    0.0018138559999983    F  F  F           Co34
    0.9998127220000016    0.4998125139999985    0.0018138559999983    F  F  F           Co35
    0.9998127220000016    0.8331458569999982    0.0018138559999983    F  F  F           Co36
    0.3331460360000023    0.1664791850000000    0.0782951564269967    T  T  T           Co37
    0.3331460360000023    0.4998125139999985    0.0782951564269967    T  T  T           Co38
    0.3331460360000023    0.8331458569999982    0.0782951564269967    T  T  T           Co39
    0.6664793489999995    0.1664791850000000    0.0782951564269967    T  T  T           Co40
    0.6664793489999995    0.4998125139999985    0.0782951564269967    T  T  T           Co41
    0.6664793489999995    0.8331458569999982    0.0782951564269967    T  T  T           Co42
    0.9998127220000016    0.1664791850000000    0.0782951564269967    T  T  T           Co43
    0.9998127220000016    0.4998125139999985    0.0782951564269967    T  T  T           Co44
    0.9998127220000016    0.8331458569999982    0.0782951564269967    T  T  T           Co45
    0.1664793039999992    0.1664791850000000    0.0404489969999986    F  F  F           Co46
    0.1664793039999992    0.4998125139999985    0.0404489969999986    F  F  F           Co47
    0.1664793039999992    0.8331458569999982    0.0404489969999986    F  F  F           Co48
    0.4998126329999977    0.1664791850000000    0.0404489969999986    F  F  F           Co49
    0.4998126329999977    0.4998125139999985    0.0404489969999986    F  F  F           Co50
    0.4998126329999977    0.8331458569999982    0.0404489969999986    F  F  F           Co51
    0.8331459759999974    0.1664791850000000    0.0404489969999986    F  F  F           Co52
    0.8331459759999974    0.4998125139999985    0.0404489969999986    F  F  F           Co53
    0.8331459759999974    0.8331458569999982    0.0404489969999986    F  F  F           Co54
    0.3331459460000019    0.3331462740000006    0.0018138739999998    F  F  F             O1
    0.3331459460000019    0.6664795880000014    0.0018138739999998    F  F  F             O2
    0.3331459460000019    0.9998129610000035    0.0018138739999998    F  F  F             O3
    0.6664792899999981    0.3331462740000006    0.0018138739999998    F  F  F             O4
    0.6664792899999981    0.6664795880000014    0.0018138739999998    F  F  F             O5
    0.6664792899999981    0.9998129610000035    0.0018138739999998    F  F  F             O6
    0.9998126030000023    0.3331462740000006    0.0018138739999998    F  F  F             O7
    0.9998126030000023    0.6664795880000014    0.0018138739999998    F  F  F             O8
    0.9998126030000023    0.9998129610000035    0.0018138739999998    F  F  F             O9
    0.3331459460000019    0.3331462740000006    0.0790965607153234    T  T  T            O10
    0.3331459460000019    0.6664795880000014    0.0790965607153234    T  T  T            O11
    0.3331459460000019    0.9998129610000035    0.0790965607153234    T  T  T            O12
    0.6664792899999981    0.3331462740000006    0.0790965607153234    T  T  T            O13
    0.6664792899999981    0.6664795880000014    0.0790965607153234    T  T  T            O14
    0.6664792899999981    0.9998129610000035    0.0790965607153234    T  T  T            O15
    0.9998126030000023    0.3331462740000006    0.0790965607153234    T  T  T            O16
    0.9998126030000023    0.6664795880000014    0.0790965607153234    T  T  T            O17
    0.9998126030000023    0.9998129610000035    0.0790965607153234    T  T  T            O18
    0.1664793939999996    0.3331462740000006    0.0404489789999971    F  F  F            O19
    0.1664793939999996    0.6664795880000014    0.0404489789999971    F  F  F            O20
    0.1664793939999996    0.9998129610000035    0.0404489789999971    F  F  F            O21
    0.4998127220000015    0.3331462740000006    0.0404489789999971    F  F  F            O22
    0.4998127220000015    0.6664795880000014    0.0404489789999971    F  F  F            O23
    0.4998127220000015    0.9998129610000035    0.0404489789999971    F  F  F            O24
    0.8331460360000023    0.3331462740000006    0.0404489789999971    F  F  F            O25
    0.8331460360000023    0.6664795880000014    0.0404489789999971    F  F  F            O26
    0.8331460360000023    0.9998129610000035    0.0404489789999971    F  F  F            O27
    0.3331459460000019    0.1664790660000008    0.0404489789999971    F  F  F            O28
    0.3331459460000019    0.4998123940000029    0.0404489789999971    F  F  F            O29
    0.3331459460000019    0.8331457379999989    0.0404489789999971    F  F  F            O30
    0.6664792899999981    0.1664790660000008    0.0404489789999971    F  F  F            O31
    0.6664792899999981    0.4998123940000029    0.0404489789999971    F  F  F            O32
    0.6664792899999981    0.8331457379999989    0.0404489789999971    F  F  F            O33
    0.9998126030000023    0.1664790660000008    0.0404489789999971    F  F  F            O34
    0.9998126030000023    0.4998123940000029    0.0404489789999971    F  F  F            O35
    0.9998126030000023    0.8331457379999989    0.0404489789999971    F  F  F            O36
    0.1664793939999996    0.1664790660000008    0.0018138739999998    F  F  F            O37
    0.1664793939999996    0.4998123940000029    0.0018138739999998    F  F  F            O38
    0.1664793939999996    0.8331457379999989    0.0018138739999998    F  F  F            O39
    0.4998127220000015    0.1664790660000008    0.0018138739999998    F  F  F            O40
    0.4998127220000015    0.4998123940000029    0.0018138739999998    F  F  F            O41
    0.4998127220000015    0.8331457379999989    0.0018138739999998    F  F  F            O42
    0.8331460360000023    0.1664790660000008    0.0018138739999998    F  F  F            O43
    0.8331460360000023    0.4998123940000029    0.0018138739999998    F  F  F            O44
    0.8331460360000023    0.8331457379999989    0.0018138739999998    F  F  F            O45
    0.1664793939999996    0.1664790660000008    0.0790965607153234    T  T  T            O46
    0.1664793939999996    0.4998123940000029    0.0790965607153234    T  T  T            O47
    0.1664793939999996    0.8331457379999989    0.0790965607153234    T  T  T            O48
    0.4998127220000015    0.1664790660000008    0.0790965607153234    T  T  T            O49
    0.4998127220000015    0.4998123940000029    0.0790965607153234    T  T  T            O50
    0.4998127220000015    0.8331457379999989    0.0790965607153234    T  T  T            O51
    0.8331460360000023    0.1664790660000008    0.0790965607153234    T  T  T            O52
    0.8331460360000023    0.4998123940000029    0.0790965607153234    T  T  T            O53
    0.8331460360000023    0.8331457379999989    0.0790965607153234    T  T  T            O54
    0.5008734472691935    0.4995245428033216    0.4387982588920569    T  T  T             C1
    0.4990283769457838    0.5004661702957690    0.4118792449125742    T  T  T             C2
    0.4348362833678723    0.5652141323884177    0.4525314494861055    T  T  T             C3
    0.5687340070036958    0.4329292412168062    0.4517653312904516    T  T  T             C4
    0.5655426143739000    0.4352418389016396    0.3981506433732288    T  T  T             C5
    0.4307262679392289    0.5665928490592606    0.3989075471823639    T  T  T             C6
    0.4364434820295701    0.5644871371223109    0.4777075296061669    T  T  T             C7
    0.5708505170621311    0.4317543586508183    0.4769705056545603    T  T  T             C8
    0.5639498132075165    0.4359369875340897    0.3729751074098516    T  T  T             C9
    0.4287053760290211    0.5678182011061051    0.3737014840290043    T  T  T            C10
    0.5045423829093271    0.4977111626190545    0.4902619498523935    T  T  T            C11
    0.4954699264327346    0.5023024769263787    0.3604152818738955    T  T  T            C12
    0.5033483297653394    0.4999480952062315    0.5171411859782629    T  T  T            C13
    0.4967799420118070    0.5001118667154298    0.3335361183022507    T  T  T            C14
    0.5730833025446795    0.4313476294081939    0.5272814188180225    T  T  T             O1
    0.4470972373257463    0.5561034130030827    0.5295090330360409    T  T  T             O2
    0.4268647657992687    0.5684931619462125    0.3233836963527655    T  T  T             O3
    0.5532807214489405    0.4441714941339479    0.3211771772755369    T  T  T             O4
    0.3808360515272276    0.6182969151390720    0.4435134672532379    T  T  T             H1
    0.6213938633294972    0.3805087432506023    0.4421351365107718    T  T  T             H2
    0.6199649119195692    0.3826050655166950    0.4071719993775383    T  T  T             H3
    0.3776035008401750    0.6185593564395263    0.4085340416965913    T  T  T             H4
    0.3850495880770699    0.6156018448613283    0.4881107533713896    T  T  T             H5
    0.6241312653733547    0.3795018575456984    0.4864858652353226    T  T  T             H6
    0.6156839262340703    0.3851493533299260    0.3625764908378882    T  T  T             H7
    0.3751221238216862    0.6197426897092856    0.3641806647428443    T  T  T             H8
    0.5653638193913304    0.4397152345924508    0.5448381082148900    T  T  T             H9
    0.4346941863489024    0.5601641326597266    0.3058285124560575    T  T  T            H10
