 Generated by VASPKIT code
   1.000
   12.7800006865999993    0.0000000000000000    0.0000000000000000
    0.0000000000000000   12.7800006865999993    0.0000000000000000
    0.0000000000000000    0.0000000000000000   55.1311798095999990
   Co   O 
   54   54
Selective Dynamics
Cartesian
    4.2576065688180682    4.2576080896381496    0.0000000000000000    F  F  F            Co1
    4.2576065688180682    8.5176080586448020    0.0000000000000000    F  F  F            Co2
    4.2576065688180682   12.7776087944514956    0.0000000000000000    F  F  F            Co3
    8.5176065378247205    4.2576080896381496    0.0000000000000000    F  F  F            Co4
    8.5176065378247205    8.5176080586448020    0.0000000000000000    F  F  F            Co5
    8.5176065378247205   12.7776087944514956    0.0000000000000000    F  F  F            Co6
   12.7776072736314141    4.2576080896381496    0.0000000000000000    F  F  F            Co7
   12.7776072736314141    8.5176080586448020    0.0000000000000000    F  F  F            Co8
   12.7776072736314141   12.7776087944514956    0.0000000000000000    F  F  F            Co9
    4.2576065688180682    4.2576080896381496    4.2166836992310603    T  T  T           Co10
    4.2576065688180682    8.5176080586448020    4.2166836992310603    T  T  T           Co11
    4.2576065688180682   12.7776087944514956    4.2166836992310603    T  T  T           Co12
    8.5176065378247205    4.2576080896381496    4.2166836992310603    T  T  T           Co13
    8.5176065378247205    8.5176080586448020    4.2166836992310603    T  T  T           Co14
    8.5176065378247205   12.7776087944514956    4.2166836992310603    T  T  T           Co15
   12.7776072736314141    4.2576080896381496    4.2166836992310603    T  T  T           Co16
   12.7776072736314141    8.5176080586448020    4.2166836992310603    T  T  T           Co17
   12.7776072736314141   12.7776087944514956    4.2166836992310603    T  T  T           Co18
    2.1276056194246897    4.2576080896381496    2.1299999682101922    F  F  F           Co19
    2.1276056194246897    8.5176080586448020    2.1299999682101922    F  F  F           Co20
    2.1276056194246897   12.7776087944514956    2.1299999682101922    F  F  F           Co21
    6.3876057929113532    4.2576080896381496    2.1299999682101922    F  F  F           Co22
    6.3876057929113532    8.5176080586448020    2.1299999682101922    F  F  F           Co23
    6.3876057929113532   12.7776087944514956    2.1299999682101922    F  F  F           Co24
   10.6476061453180257    4.2576080896381496    2.1299999682101922    F  F  F           Co25
   10.6476061453180257    8.5176080586448020    2.1299999682101922    F  F  F           Co26
   10.6476061453180257   12.7776087944514956    2.1299999682101922    F  F  F           Co27
    4.2576065688180682    2.1276040986046083    2.1299999682101922    F  F  F           Co28
    4.2576065688180682    6.3876042720912727    2.1299999682101922    F  F  F           Co29
    4.2576065688180682   10.6476046244979443    2.1299999682101922    F  F  F           Co30
    8.5176065378247205    2.1276040986046083    2.1299999682101922    F  F  F           Co31
    8.5176065378247205    6.3876042720912727    2.1299999682101922    F  F  F           Co32
    8.5176065378247205   10.6476046244979443    2.1299999682101922    F  F  F           Co33
   12.7776072736314141    2.1276040986046083    2.1299999682101922    F  F  F           Co34
   12.7776072736314141    6.3876042720912727    2.1299999682101922    F  F  F           Co35
   12.7776072736314141   10.6476046244979443    2.1299999682101922    F  F  F           Co36
    2.1276056194246897    2.1276040986046083    0.0000000000000000    F  F  F           Co37
    2.1276056194246897    6.3876042720912727    0.0000000000000000    F  F  F           Co38
    2.1276056194246897   10.6476046244979443    0.0000000000000000    F  F  F           Co39
    6.3876057929113532    2.1276040986046083    0.0000000000000000    F  F  F           Co40
    6.3876057929113532    6.3876042720912727    0.0000000000000000    F  F  F           Co41
    6.3876057929113532   10.6476046244979443    0.0000000000000000    F  F  F           Co42
   10.6476061453180257    2.1276040986046083    0.0000000000000000    F  F  F           Co43
   10.6476061453180257    6.3876042720912727    0.0000000000000000    F  F  F           Co44
   10.6476061453180257   10.6476046244979443    0.0000000000000000    F  F  F           Co45
    2.1276056194246897    2.1276040986046083    4.2166836992310603    T  T  T           Co46
    2.1276056194246897    6.3876042720912727    4.2166836992310603    T  T  T           Co47
    2.1276056194246897   10.6476046244979443    4.2166836992310603    T  T  T           Co48
    6.3876057929113532    2.1276040986046083    4.2166836992310603    T  T  T           Co49
    6.3876057929113532    6.3876042720912727    4.2166836992310603    T  T  T           Co50
    6.3876057929113532   10.6476046244979443    4.2166836992310603    T  T  T           Co51
   10.6476061453180257    2.1276040986046083    4.2166836992310603    T  T  T           Co52
   10.6476061453180257    6.3876042720912727    4.2166836992310603    T  T  T           Co53
   10.6476061453180257   10.6476046244979443    4.2166836992310603    T  T  T           Co54
    4.2576054186180077    4.2576096104582328    2.1300009605714290    F  F  F             O1
    4.2576054186180077    8.5176095922448862    2.1300009605714290    F  F  F             O2
    4.2576054186180077   12.7776103280515798    2.1300009605714290    F  F  F             O3
    8.5176057838046830    4.2576096104582328    2.1300009605714290    F  F  F             O4
    8.5176057838046830    8.5176095922448862    2.1300009605714290    F  F  F             O5
    8.5176057838046830   12.7776103280515798    2.1300009605714290    F  F  F             O6
   12.7776057528113327    4.2576096104582328    2.1300009605714290    F  F  F             O7
   12.7776057528113327    8.5176095922448862    2.1300009605714290    F  F  F             O8
   12.7776057528113327   12.7776103280515798    2.1300009605714290    F  F  F             O9
    2.1276067696247520    4.2576096104582328    0.0000000000000000    F  F  F            O10
    2.1276067696247520    8.5176095922448862    0.0000000000000000    F  F  F            O11
    2.1276067696247520   12.7776103280515798    0.0000000000000000    F  F  F            O12
    6.3876069303314171    4.2576096104582328    0.0000000000000000    F  F  F            O13
    6.3876069303314171    8.5176095922448862    0.0000000000000000    F  F  F            O14
    6.3876069303314171   12.7776103280515798    0.0000000000000000    F  F  F            O15
   10.6476069121180679    4.2576096104582328    0.0000000000000000    F  F  F            O16
   10.6476069121180679    8.5176095922448862    0.0000000000000000    F  F  F            O17
   10.6476069121180679   12.7776103280515798    0.0000000000000000    F  F  F            O18
    2.1276067696247520    4.2576096104582328    4.2609832561434695    T  T  T            O19
    2.1276067696247520    8.5176095922448862    4.2609832561434695    T  T  T            O20
    2.1276067696247520   12.7776103280515798    4.2609832561434695    T  T  T            O21
    6.3876069303314171    4.2576096104582328    4.2609832561434695    T  T  T            O22
    6.3876069303314171    8.5176095922448862    4.2609832561434695    T  T  T            O23
    6.3876069303314171   12.7776103280515798    4.2609832561434695    T  T  T            O24
   10.6476069121180679    4.2576096104582328    4.2609832561434695    T  T  T            O25
   10.6476069121180679    8.5176095922448862    4.2609832561434695    T  T  T            O26
   10.6476069121180679   12.7776103280515798    4.2609832561434695    T  T  T            O27
    4.2576054186180077    2.1276025777845269    0.0000000000000000    F  F  F            O28
    4.2576054186180077    6.3876027384911920    0.0000000000000000    F  F  F            O29
    4.2576054186180077   10.6476031036778629    0.0000000000000000    F  F  F            O30
    8.5176057838046830    2.1276025777845269    0.0000000000000000    F  F  F            O31
    8.5176057838046830    6.3876027384911920    0.0000000000000000    F  F  F            O32
    8.5176057838046830   10.6476031036778629    0.0000000000000000    F  F  F            O33
   12.7776057528113327    2.1276025777845269    0.0000000000000000    F  F  F            O34
   12.7776057528113327    6.3876027384911920    0.0000000000000000    F  F  F            O35
   12.7776057528113327   10.6476031036778629    0.0000000000000000    F  F  F            O36
    4.2576054186180077    2.1276025777845269    4.2609832561434695    T  T  T            O37
    4.2576054186180077    6.3876027384911920    4.2609832561434695    T  T  T            O38
    4.2576054186180077   10.6476031036778629    4.2609832561434695    T  T  T            O39
    8.5176057838046830    2.1276025777845269    4.2609832561434695    T  T  T            O40
    8.5176057838046830    6.3876027384911920    4.2609832561434695    T  T  T            O41
    8.5176057838046830   10.6476031036778629    4.2609832561434695    T  T  T            O42
   12.7776057528113327    2.1276025777845269    4.2609832561434695    T  T  T            O43
   12.7776057528113327    6.3876027384911920    4.2609832561434695    T  T  T            O44
   12.7776057528113327   10.6476031036778629    4.2609832561434695    T  T  T            O45
    2.1276067696247520    2.1276025777845269    2.1300009605714290    F  F  F            O46
    2.1276067696247520    6.3876027384911920    2.1300009605714290    F  F  F            O47
    2.1276067696247520   10.6476031036778629    2.1300009605714290    F  F  F            O48
    6.3876069303314171    2.1276025777845269    2.1300009605714290    F  F  F            O49
    6.3876069303314171    6.3876027384911920    2.1300009605714290    F  F  F            O50
    6.3876069303314171   10.6476031036778629    2.1300009605714290    F  F  F            O51
   10.6476069121180679    2.1276025777845269    2.1300009605714290    F  F  F            O52
   10.6476069121180679    6.3876027384911920    2.1300009605714290    F  F  F            O53
   10.6476069121180679   10.6476031036778629    2.1300009605714290    F  F  F            O54
