 Generated by VASPKIT code
   1.000
   12.7800006865999993    0.0000000000000000    0.0000000000000000
    0.0000000000000000   12.7800006865999993    0.0000000000000000
    0.0000000000000000    0.0000000000000000   55.1311798095999990
   Co   O    C    O    H 
   54   54   14    4   10
Selective Dynamics
Cartesian
    4.2576065688180682    4.2576080896381496    0.0000000000000000    F  F  F            Co1
    4.2576065688180682    8.5176080586448020    0.0000000000000000    F  F  F            Co2
    4.2576065688180682   12.7776087944514956    0.0000000000000000    F  F  F            Co3
    8.5176065378247205    4.2576080896381496    0.0000000000000000    F  F  F            Co4
    8.5176065378247205    8.5176080586448020    0.0000000000000000    F  F  F            Co5
    8.5176065378247205   12.7776087944514956    0.0000000000000000    F  F  F            Co6
   12.7776072736314141    4.2576080896381496    0.0000000000000000    F  F  F            Co7
   12.7776072736314141    8.5176080586448020    0.0000000000000000    F  F  F            Co8
   12.7776072736314141   12.7776087944514956    0.0000000000000000    F  F  F            Co9
    4.2576065688180682    4.2576080896381496    4.2166836992310603    T  T  T           Co10
    4.2576065688180682    8.5176080586448020    4.2166836992310603    T  T  T           Co11
    4.2576065688180682   12.7776087944514956    4.2166836992310603    T  T  T           Co12
    8.5176065378247205    4.2576080896381496    4.2166836992310603    T  T  T           Co13
    8.5176065378247205    8.5176080586448020    4.2166836992310603    T  T  T           Co14
    8.5176065378247205   12.7776087944514956    4.2166836992310603    T  T  T           Co15
   12.7776072736314141    4.2576080896381496    4.2166836992310603    T  T  T           Co16
   12.7776072736314141    8.5176080586448020    4.2166836992310603    T  T  T           Co17
   12.7776072736314141   12.7776087944514956    4.2166836992310603    T  T  T           Co18
    2.1276056194246897    4.2576080896381496    2.1299999682101922    F  F  F           Co19
    2.1276056194246897    8.5176080586448020    2.1299999682101922    F  F  F           Co20
    2.1276056194246897   12.7776087944514956    2.1299999682101922    F  F  F           Co21
    6.3876057929113532    4.2576080896381496    2.1299999682101922    F  F  F           Co22
    6.3876057929113532    8.5176080586448020    2.1299999682101922    F  F  F           Co23
    6.3876057929113532   12.7776087944514956    2.1299999682101922    F  F  F           Co24
   10.6476061453180257    4.2576080896381496    2.1299999682101922    F  F  F           Co25
   10.6476061453180257    8.5176080586448020    2.1299999682101922    F  F  F           Co26
   10.6476061453180257   12.7776087944514956    2.1299999682101922    F  F  F           Co27
    4.2576065688180682    2.1276040986046083    2.1299999682101922    F  F  F           Co28
    4.2576065688180682    6.3876042720912727    2.1299999682101922    F  F  F           Co29
    4.2576065688180682   10.6476046244979443    2.1299999682101922    F  F  F           Co30
    8.5176065378247205    2.1276040986046083    2.1299999682101922    F  F  F           Co31
    8.5176065378247205    6.3876042720912727    2.1299999682101922    F  F  F           Co32
    8.5176065378247205   10.6476046244979443    2.1299999682101922    F  F  F           Co33
   12.7776072736314141    2.1276040986046083    2.1299999682101922    F  F  F           Co34
   12.7776072736314141    6.3876042720912727    2.1299999682101922    F  F  F           Co35
   12.7776072736314141   10.6476046244979443    2.1299999682101922    F  F  F           Co36
    2.1276056194246897    2.1276040986046083    0.0000000000000000    F  F  F           Co37
    2.1276056194246897    6.3876042720912727    0.0000000000000000    F  F  F           Co38
    2.1276056194246897   10.6476046244979443    0.0000000000000000    F  F  F           Co39
    6.3876057929113532    2.1276040986046083    0.0000000000000000    F  F  F           Co40
    6.3876057929113532    6.3876042720912727    0.0000000000000000    F  F  F           Co41
    6.3876057929113532   10.6476046244979443    0.0000000000000000    F  F  F           Co42
   10.6476061453180257    2.1276040986046083    0.0000000000000000    F  F  F           Co43
   10.6476061453180257    6.3876042720912727    0.0000000000000000    F  F  F           Co44
   10.6476061453180257   10.6476046244979443    0.0000000000000000    F  F  F           Co45
    2.1276056194246897    2.1276040986046083    4.2166836992310603    T  T  T           Co46
    2.1276056194246897    6.3876042720912727    4.2166836992310603    T  T  T           Co47
    2.1276056194246897   10.6476046244979443    4.2166836992310603    T  T  T           Co48
    6.3876057929113532    2.1276040986046083    4.2166836992310603    T  T  T           Co49
    6.3876057929113532    6.3876042720912727    4.2166836992310603    T  T  T           Co50
    6.3876057929113532   10.6476046244979443    4.2166836992310603    T  T  T           Co51
   10.6476061453180257    2.1276040986046083    4.2166836992310603    T  T  T           Co52
   10.6476061453180257    6.3876042720912727    4.2166836992310603    T  T  T           Co53
   10.6476061453180257   10.6476046244979443    4.2166836992310603    T  T  T           Co54
    4.2576054186180077    4.2576096104582328    2.1300009605714290    F  F  F             O1
    4.2576054186180077    8.5176095922448862    2.1300009605714290    F  F  F             O2
    4.2576054186180077   12.7776103280515798    2.1300009605714290    F  F  F             O3
    8.5176057838046830    4.2576096104582328    2.1300009605714290    F  F  F             O4
    8.5176057838046830    8.5176095922448862    2.1300009605714290    F  F  F             O5
    8.5176057838046830   12.7776103280515798    2.1300009605714290    F  F  F             O6
   12.7776057528113327    4.2576096104582328    2.1300009605714290    F  F  F             O7
   12.7776057528113327    8.5176095922448862    2.1300009605714290    F  F  F             O8
   12.7776057528113327   12.7776103280515798    2.1300009605714290    F  F  F             O9
    2.1276067696247520    4.2576096104582328    0.0000000000000000    F  F  F            O10
    2.1276067696247520    8.5176095922448862    0.0000000000000000    F  F  F            O11
    2.1276067696247520   12.7776103280515798    0.0000000000000000    F  F  F            O12
    6.3876069303314171    4.2576096104582328    0.0000000000000000    F  F  F            O13
    6.3876069303314171    8.5176095922448862    0.0000000000000000    F  F  F            O14
    6.3876069303314171   12.7776103280515798    0.0000000000000000    F  F  F            O15
   10.6476069121180679    4.2576096104582328    0.0000000000000000    F  F  F            O16
   10.6476069121180679    8.5176095922448862    0.0000000000000000    F  F  F            O17
   10.6476069121180679   12.7776103280515798    0.0000000000000000    F  F  F            O18
    2.1276067696247520    4.2576096104582328    4.2609832561434695    T  T  T            O19
    2.1276067696247520    8.5176095922448862    4.2609832561434695    T  T  T            O20
    2.1276067696247520   12.7776103280515798    4.2609832561434695    T  T  T            O21
    6.3876069303314171    4.2576096104582328    4.2609832561434695    T  T  T            O22
    6.3876069303314171    8.5176095922448862    4.2609832561434695    T  T  T            O23
    6.3876069303314171   12.7776103280515798    4.2609832561434695    T  T  T            O24
   10.6476069121180679    4.2576096104582328    4.2609832561434695    T  T  T            O25
   10.6476069121180679    8.5176095922448862    4.2609832561434695    T  T  T            O26
   10.6476069121180679   12.7776103280515798    4.2609832561434695    T  T  T            O27
    4.2576054186180077    2.1276025777845269    0.0000000000000000    F  F  F            O28
    4.2576054186180077    6.3876027384911920    0.0000000000000000    F  F  F            O29
    4.2576054186180077   10.6476031036778629    0.0000000000000000    F  F  F            O30
    8.5176057838046830    2.1276025777845269    0.0000000000000000    F  F  F            O31
    8.5176057838046830    6.3876027384911920    0.0000000000000000    F  F  F            O32
    8.5176057838046830   10.6476031036778629    0.0000000000000000    F  F  F            O33
   12.7776057528113327    2.1276025777845269    0.0000000000000000    F  F  F            O34
   12.7776057528113327    6.3876027384911920    0.0000000000000000    F  F  F            O35
   12.7776057528113327   10.6476031036778629    0.0000000000000000    F  F  F            O36
    4.2576054186180077    2.1276025777845269    4.2609832561434695    T  T  T            O37
    4.2576054186180077    6.3876027384911920    4.2609832561434695    T  T  T            O38
    4.2576054186180077   10.6476031036778629    4.2609832561434695    T  T  T            O39
    8.5176057838046830    2.1276025777845269    4.2609832561434695    T  T  T            O40
    8.5176057838046830    6.3876027384911920    4.2609832561434695    T  T  T            O41
    8.5176057838046830   10.6476031036778629    4.2609832561434695    T  T  T            O42
   12.7776057528113327    2.1276025777845269    4.2609832561434695    T  T  T            O43
   12.7776057528113327    6.3876027384911920    4.2609832561434695    T  T  T            O44
   12.7776057528113327   10.6476031036778629    4.2609832561434695    T  T  T            O45
    2.1276067696247520    2.1276025777845269    2.1300009605714290    F  F  F            O46
    2.1276067696247520    6.3876027384911920    2.1300009605714290    F  F  F            O47
    2.1276067696247520   10.6476031036778629    2.1300009605714290    F  F  F            O48
    6.3876069303314171    2.1276025777845269    2.1300009605714290    F  F  F            O49
    6.3876069303314171    6.3876027384911920    2.1300009605714290    F  F  F            O50
    6.3876069303314171   10.6476031036778629    2.1300009605714290    F  F  F            O51
   10.6476069121180679    2.1276025777845269    2.1300009605714290    F  F  F            O52
   10.6476069121180679    6.3876027384911920    2.1300009605714290    F  F  F            O53
   10.6476069121180679   10.6476031036778629    2.1300009605714290    F  F  F            O54
    6.4011630000000013    6.3839240000000004   24.2814657111173986    T  T  T             C1
    6.3775829999999996    6.3959580000000003   22.7973887111173994    T  T  T             C2
    5.5572079999999993    7.2234370000000006   25.0385927111174027    T  T  T             C3
    7.2684210000000009    5.5328359999999996   24.9963557111173991    T  T  T             C4
    7.2276350000000003    5.5623909999999999   22.0405147111174031    T  T  T             C5
    5.5046820000000025    7.2410569999999996   22.0822437111173997    T  T  T             C6
    5.5777480000000015    7.2141460000000013   26.4265797111174052    T  T  T             C7
    7.2954699999999999    5.5178210000000005   26.3859467111173984    T  T  T             C8
    7.2072790000000015    5.5712750000000018   20.6525577111173995    T  T  T             C9
    5.4788550000000003    7.2567170000000001   20.6926037111173962    T  T  T            C10
    6.4480519999999997    6.3607490000000002   27.1187197111174072    T  T  T            C11
    6.3321059999999987    6.4194260000000005   19.9601197111174002    T  T  T            C12
    6.4327920000000001    6.3893370000000003   28.6006037111174045    T  T  T            C13
    6.3488480000000012    6.3914300000000006   18.4782397111174035    T  T  T            C14
    7.3240049999999997    5.5126229999999996   29.1596467111174036    T  T  T             O1
    5.7139030000000002    7.1070020000000005   29.2824577111173987    T  T  T             O2
    5.4553320000000021    7.2653429999999997   17.9185247111173958    T  T  T             O3
    7.0709280000000021    5.6765120000000016   17.7968767111174024    T  T  T             O4
    4.8670850000000012    7.9018350000000019   24.5414207111174001    T  T  T             H1
    7.9414140000000000    4.8629020000000001   24.4654317111174038    T  T  T             H2
    7.9231520000000017    4.8896929999999994   22.5378727111174015    T  T  T             H3
    4.8257729999999999    7.9051890000000000   22.6129637111173984    T  T  T             H4
    4.9209339999999999    7.8673920000000015   27.0001217111174050    T  T  T             H5
    7.9763979999999997    4.8500340000000000   26.9105397111174049    T  T  T             H6
    7.8684410000000016    4.9222089999999996   20.0792697111174014    T  T  T             H7
    4.7940609999999992    7.9203120000000000   20.1677097111174000    T  T  T             H8
    7.2253500000000006    5.6195610000000009   30.1275677111174041    T  T  T             H9
    5.5553920000000003    7.1588979999999998   16.9506867111173989    T  T  T            H10
