 Generated by VASPKIT code
   1.000
   12.7800006865999993    0.0000000000000000    0.0000000000000000
    0.0000000000000000   12.7800006865999993    0.0000000000000000
    0.0000000000000000    0.0000000000000000   55.1311798095999990
   C    O    H 
   14    4   10
Selective Dynamics
Cartesian
    6.4011630000000013    6.3839240000000004   24.2814657111173986    T  T  T             C1
    6.3775829999999996    6.3959580000000003   22.7973887111173994    T  T  T             C2
    5.5572079999999993    7.2234370000000006   25.0385927111174027    T  T  T             C3
    7.2684210000000009    5.5328359999999996   24.9963557111173991    T  T  T             C4
    7.2276350000000003    5.5623909999999999   22.0405147111174031    T  T  T             C5
    5.5046820000000025    7.2410569999999996   22.0822437111173997    T  T  T             C6
    5.5777480000000015    7.2141460000000013   26.4265797111174052    T  T  T             C7
    7.2954699999999999    5.5178210000000005   26.3859467111173984    T  T  T             C8
    7.2072790000000015    5.5712750000000018   20.6525577111173995    T  T  T             C9
    5.4788550000000003    7.2567170000000001   20.6926037111173962    T  T  T            C10
    6.4480519999999997    6.3607490000000002   27.1187197111174072    T  T  T            C11
    6.3321059999999987    6.4194260000000005   19.9601197111174002    T  T  T            C12
    6.4327920000000001    6.3893370000000003   28.6006037111174045    T  T  T            C13
    6.3488480000000012    6.3914300000000006   18.4782397111174035    T  T  T            C14
    7.3240049999999997    5.5126229999999996   29.1596467111174036    T  T  T             O1
    5.7139030000000002    7.1070020000000005   29.2824577111173987    T  T  T             O2
    5.4553320000000021    7.2653429999999997   17.9185247111173958    T  T  T             O3
    7.0709280000000021    5.6765120000000016   17.7968767111174024    T  T  T             O4
    4.8670850000000012    7.9018350000000019   24.5414207111174001    T  T  T             H1
    7.9414140000000000    4.8629020000000001   24.4654317111174038    T  T  T             H2
    7.9231520000000017    4.8896929999999994   22.5378727111174015    T  T  T             H3
    4.8257729999999999    7.9051890000000000   22.6129637111173984    T  T  T             H4
    4.9209339999999999    7.8673920000000015   27.0001217111174050    T  T  T             H5
    7.9763979999999997    4.8500340000000000   26.9105397111174049    T  T  T             H6
    7.8684410000000016    4.9222089999999996   20.0792697111174014    T  T  T             H7
    4.7940609999999992    7.9203120000000000   20.1677097111174000    T  T  T             H8
    7.2253500000000006    5.6195610000000009   30.1275677111174041    T  T  T             H9
    5.5553920000000003    7.1588979999999998   16.9506867111173989    T  T  T            H10
